*SPEF "IEEE 1481-1999"
*DESIGN "usb_utmi_phy"
*DATE "Tue Aug 25 23:26:30 2026"
*VENDOR "2AM Logic"
*PROGRAM "klt extract"
*VERSION "0.3.0"
*DESIGN_FLOW "NAME_SCOPE LOCAL" "PIN_CAP NONE"
*DIVIDER /
*DELIMITER :
*BUS_DELIMITER [ ]
*T_UNIT 1 PS
*C_UNIT 1 FF
*R_UNIT 1 OHM
*L_UNIT 1 HENRY

*PORTS
DataIn\[0\] B
DataIn\[1\] B
DataIn\[2\] B
DataIn\[3\] B
DataIn\[4\] B
DataIn\[5\] B
DataIn\[6\] B
DataIn\[7\] B
DataOut\[0\] B
DataOut\[1\] B
DataOut\[2\] B
DataOut\[3\] B
DataOut\[4\] B
DataOut\[5\] B
DataOut\[6\] B
DataOut\[7\] B
OpMode\[0\] B
OpMode\[1\] B
Q B
Reset B
RxError B
RxValid B
SuspendM B
TermSelect B
TxReady B
TxValid B
VDD B
VSS B
XcvrSelect B
ZN B
_000_ B
_001_ B
_002_ B
_003_ B
_004_ B
_005_ B
_006_ B
_007_ B
_008_ B
_009_ B
_010_ B
_011_ B
_012_ B
_013_ B
_014_ B
_015_ B
_016_ B
_017_ B
_018_ B
_019_ B
_020_ B
_021_ B
_022_ B
_023_ B
_024_ B
_025_ B
_026_ B
_027_ B
_028_ B
_029_ B
_030_ B
_031_ B
_032_ B
_033_ B
_034_ B
_035_ B
_036_ B
_037_ B
_038_ B
_039_ B
_040_ B
_041_ B
_042_ B
_043_ B
_044_ B
_045_ B
_046_ B
_047_ B
_048_ B
_049_ B
_050_ B
_051_ B
_052_ B
_053_ B
_054_ B
_055_ B
_056_ B
_057_ B
_058_ B
_060_ B
_061_ B
_063_ B
_064_ B
_065_ B
_066_ B
_067_ B
_068_ B
_069_ B
_070_ B
_071_ B
_072_ B
_073_ B
_074_ B
_075_ B
_076_ B
_077_ B
_078_ B
_080_ B
_082_ B
_083_ B
_084_ B
_085_ B
_086_ B
_087_ B
_088_ B
_089_ B
_090_ B
_091_ B
_092_ B
_093_ B
_094_ B
_095_ B
_096_ B
_097_ B
_098_ B
_099_ B
_100_ B
_101_ B
_102_ B
_103_ B
_104_ B
_105_ B
_106_ B
_107_ B
_108_ B
_109_ B
_110_ B
_111_ B
_113_ B
_114_ B
_116_ B
_117_ B
_118_ B
_119_ B
_120_ B
_121_ B
_122_ B
_123_ B
_124_ B
_125_ B
_126_ B
_127_ B
_128_ B
_129_ B
_130_ B
_131_ B
_132_ B
_133_ B
_134_ B
_135_ B
_136_ B
_137_ B
_138_ B
_139_ B
_140_ B
_141_ B
_142_ B
_143_ B
_144_ B
_145_ B
bus_reset B
clk B
clknet_0_clk B
clknet_3_0__leaf_clk B
clknet_3_1__leaf_clk B
clknet_3_2__leaf_clk B
clknet_3_3__leaf_clk B
clknet_3_4__leaf_clk B
clknet_3_5__leaf_clk B
clknet_3_6__leaf_clk B
clknet_3_7__leaf_clk B
cur_byte\[0\] B
cur_byte\[1\] B
cur_byte\[2\] B
cur_byte\[3\] B
cur_byte\[4\] B
cur_byte\[5\] B
cur_byte\[6\] B
cur_byte\[7\] B
dec_data_bit B
dec_data_valid B
dec_line_bit B
dec_line_valid B
destuff_in_valid B
destuff_out_bit B
destuff_out_valid B
destuff_stuff_err B
enc_line_bit B
enc_line_valid B
eop_pulse B
int_rst_n B
line_state\[0\] B
line_state\[1\] B
next_byte\[0\] B
next_byte\[1\] B
next_byte\[2\] B
next_byte\[3\] B
next_byte\[4\] B
next_byte\[5\] B
next_byte\[6\] B
next_byte\[7\] B
next_valid B
rst_n B
rx_bitcnt\[0\] B
rx_bitcnt\[1\] B
rx_bitcnt\[2\] B
rx_receiving B
rx_shift\[1\] B
rx_shift\[2\] B
rx_shift\[3\] B
rx_shift\[4\] B
rx_shift\[5\] B
rx_shift\[6\] B
rx_shift\[7\] B
rxdm B
rxdp B
stuff_in_ready B
stuff_out_bit B
stuff_out_valid B
stuffer_in_bit B
stuffer_in_valid B
sync_next B
tx_bitidx\[0\] B
tx_bitidx\[1\] B
tx_bitidx\[2\] B
tx_state\[0\] B
tx_state\[1\] B
tx_state\[2\] B
tx_state\[3\] B
tx_state\[4\] B
tx_state\[5\] B
tx_state\[6\] B
tx_state\[7\] B
tx_state\[8\] B
txdm B
txdp B
u_decoder\/_00_ B
u_decoder\/_01_ B
u_decoder\/_02_ B
u_decoder\/_03_ B
u_decoder\/_04_ B
u_decoder\/_05_ B
u_decoder\/_06_ B
u_decoder\/_07_ B
u_decoder\/_08_ B
u_decoder\/prev_line B
u_destuffer\/_00_ B
u_destuffer\/_01_ B
u_destuffer\/_02_ B
u_destuffer\/_03_ B
u_destuffer\/_04_ B
u_destuffer\/_05_ B
u_destuffer\/_06_ B
u_destuffer\/_07_ B
u_destuffer\/_08_ B
u_destuffer\/_09_ B
u_destuffer\/_10_ B
u_destuffer\/_11_ B
u_destuffer\/_12_ B
u_destuffer\/_13_ B
u_destuffer\/_14_ B
u_destuffer\/_15_ B
u_destuffer\/_16_ B
u_destuffer\/_17_ B
u_destuffer\/_18_ B
u_destuffer\/_19_ B
u_destuffer\/_20_ B
u_destuffer\/_21_ B
u_destuffer\/ones\[0\] B
u_destuffer\/ones\[1\] B
u_destuffer\/ones\[2\] B
u_encoder\/_00_ B
u_encoder\/_01_ B
u_encoder\/_02_ B
u_encoder\/_03_ B
u_encoder\/_04_ B
u_encoder\/_05_ B
u_encoder\/_06_ B
u_eop_detector\/_00_ B
u_eop_detector\/_01_ B
u_eop_detector\/_02_ B
u_eop_detector\/_03_ B
u_eop_detector\/_04_ B
u_eop_detector\/_05_ B
u_eop_detector\/_06_ B
u_eop_detector\/_07_ B
u_eop_detector\/_08_ B
u_eop_detector\/_09_ B
u_eop_detector\/_10_ B
u_eop_detector\/_11_ B
u_eop_detector\/_12_ B
u_eop_detector\/_13_ B
u_eop_detector\/_14_ B
u_eop_detector\/_15_ B
u_eop_detector\/_16_ B
u_eop_detector\/_17_ B
u_eop_detector\/_18_ B
u_eop_detector\/_19_ B
u_eop_detector\/_20_ B
u_eop_detector\/_21_ B
u_eop_detector\/_22_ B
u_eop_detector\/_23_ B
u_eop_detector\/_24_ B
u_eop_detector\/_25_ B
u_eop_detector\/_26_ B
u_eop_detector\/se0_count\[0\] B
u_eop_detector\/se0_count\[1\] B
u_eop_detector\/se0_count\[2\] B
u_eop_detector\/se0_count\[3\] B
u_eop_detector\/se0_count\[4\] B
u_eop_detector\/se0_count\[5\] B
u_line_state\/_0_ B
u_line_state\/_1_ B
u_line_state\/_2_ B
u_stuffer\/_00_ B
u_stuffer\/_01_ B
u_stuffer\/_02_ B
u_stuffer\/_03_ B
u_stuffer\/_04_ B
u_stuffer\/_05_ B
u_stuffer\/_06_ B
u_stuffer\/_07_ B
u_stuffer\/_08_ B
u_stuffer\/_09_ B
u_stuffer\/_10_ B
u_stuffer\/_11_ B
u_stuffer\/_12_ B
u_stuffer\/_13_ B
u_stuffer\/_14_ B
u_stuffer\/_15_ B
u_stuffer\/_16_ B
u_stuffer\/_17_ B
u_stuffer\/_18_ B
u_stuffer\/ones\[0\] B
u_stuffer\/ones\[1\] B
u_stuffer\/ones\[2\] B
u_sync_detector\/_00_ B
u_sync_detector\/_01_ B
u_sync_detector\/_02_ B
u_sync_detector\/_03_ B
u_sync_detector\/_04_ B
u_sync_detector\/_05_ B
u_sync_detector\/_06_ B
u_sync_detector\/_07_ B
u_sync_detector\/_08_ B
u_sync_detector\/_09_ B
u_sync_detector\/_10_ B
u_sync_detector\/_11_ B
u_sync_detector\/_12_ B
u_sync_detector\/_13_ B
u_sync_detector\/_14_ B
u_sync_detector\/_15_ B
u_sync_detector\/match\[0\] B
u_sync_detector\/match\[1\] B
u_sync_detector\/match\[2\] B
u_sync_detector\/match\[3\] B

*D_NET \$1001 0.343176
*CAP
1 \$1001:1 0.343176
*RES
1 \$1001:1 \$1001:2 0.741500
2 \$1001:1 \$1001:3 0.001000
3 \$1001:1 \$1001:4 0.741500
*END

*D_NET \$1002 1.558222
*CAP
1 \$1002:1 1.546676
2 \$1002:1 line_state[0] 0.003123
3 \$1002:1 u_decoder\/prev_line 0.008423
*RES
1 \$1002:1 \$1002:2 24.206200
2 \$1002:1 \$1002:3 24.607900
3 \$1002:1 \$1002:4 16.699600
4 \$1002:1 \$1002:5 16.983400
5 \$1002:1 \$1002:6 20.146800
6 \$1002:1 \$1002:7 29.217800
7 \$1002:1 \$1002:8 13.968000
8 \$1002:1 \$1002:9 20.488900
*END

*D_NET \$1007 2.897900
*CAP
1 \$1007:1 2.890298
2 \$1007:1 _020_ 0.003801
3 \$1007:1 clknet_3_5__leaf_clk 0.003801
*RES
1 \$1007:1 \$1007:2 82.156100
2 \$1007:1 \$1007:3 110.065100
3 \$1007:1 \$1007:4 34.925800
4 \$1007:1 \$1007:5 20.494200
5 \$1007:1 \$1007:6 48.068200
6 \$1007:1 \$1007:7 65.091900
7 \$1007:1 \$1007:8 65.705800
8 \$1007:1 \$1007:9 46.925300
*END

*D_NET \$1008 2.130471
*CAP
1 \$1008:1 2.130471
*RES
1 \$1008:1 \$1008:2 63.310200
2 \$1008:1 \$1008:3 48.046900
3 \$1008:1 \$1008:4 13.008400
4 \$1008:1 \$1008:5 23.606500
5 \$1008:1 \$1008:6 48.146100
6 \$1008:1 \$1008:7 47.329500
*END

*D_NET \$1010 0.845043
*CAP
1 \$1010:1 0.843560
2 \$1010:1 _020_ 0.001483
*RES
1 \$1010:1 \$1010:2 23.748600
2 \$1010:1 \$1010:3 27.599400
3 \$1010:1 \$1010:4 22.372100
4 \$1010:1 \$1010:5 12.741300
5 \$1010:1 \$1010:6 22.897300
6 \$1010:1 \$1010:7 13.523900
*END

*D_NET \$1011 0.832679
*CAP
1 \$1011:1 0.832679
*RES
1 \$1011:1 \$1011:2 15.499600
2 \$1011:1 \$1011:3 16.527400
3 \$1011:1 \$1011:4 10.298700
4 \$1011:1 \$1011:5 13.857700
5 \$1011:1 \$1011:6 10.523900
6 \$1011:1 \$1011:7 17.319100
*END

*D_NET \$1012 0.973478
*CAP
1 \$1012:1 0.973478
*RES
1 \$1012:1 \$1012:2 17.360700
2 \$1012:1 \$1012:3 17.105400
3 \$1012:1 \$1012:4 16.870200
4 \$1012:1 \$1012:5 8.058000
5 \$1012:1 \$1012:6 13.771500
6 \$1012:1 \$1012:7 8.212700
*END

*D_NET \$1013 1.343363
*CAP
1 \$1013:1 1.343363
*RES
1 \$1013:1 \$1013:2 37.481600
2 \$1013:1 \$1013:3 18.380300
3 \$1013:1 \$1013:4 19.166400
4 \$1013:1 \$1013:5 30.960700
5 \$1013:1 \$1013:6 31.720400
6 \$1013:1 \$1013:7 37.678600
*END

*D_NET \$1037 0.858210
*CAP
1 \$1037:1 0.846807
2 \$1037:1 _054_ 0.003801
3 \$1037:1 _072_ 0.003801
4 \$1037:1 tx_bitidx[1] 0.003801
*RES
1 \$1037:1 \$1037:2 1.394800
2 \$1037:1 \$1037:3 0.963100
3 \$1037:1 \$1037:4 0.022500
4 \$1037:1 \$1037:5 0.486400
5 \$1037:1 \$1037:6 0.634600
6 \$1037:1 \$1037:7 0.306000
*END

*D_NET \$1038 0.801887
*CAP
1 \$1038:1 0.768479
2 \$1038:1 _009_ 0.010991
3 \$1038:1 dec_line_valid 0.004710
4 \$1038:1 int_rst_n 0.004486
5 \$1038:1 rx_receiving 0.003801
6 \$1038:1 u_decoder\/_00_ 0.004710
7 \$1038:1 u_decoder\/_04_ 0.004710
*RES
1 \$1038:1 \$1038:2 0.894000
2 \$1038:1 \$1038:3 0.916700
3 \$1038:1 \$1038:4 0.535500
4 \$1038:1 \$1038:5 0.188300
5 \$1038:1 \$1038:6 0.546800
6 \$1038:1 \$1038:7 0.199700
*END

*D_NET \$1039 0.797771
*CAP
1 \$1039:1 0.772733
2 \$1039:1 TxValid 0.004710
3 \$1039:1 _061_ 0.003801
4 \$1039:1 _084_ 0.008925
5 \$1039:1 tx_state[0] 0.003801
6 \$1039:1 tx_state[3] 0.003801
*RES
1 \$1039:1 \$1039:2 0.894000
2 \$1039:1 \$1039:3 0.916700
3 \$1039:1 \$1039:4 0.199700
4 \$1039:1 \$1039:5 0.188300
5 \$1039:1 \$1039:6 0.535500
6 \$1039:1 \$1039:7 0.546800
*END

*D_NET \$1040 0.312302
*CAP
1 \$1040:1 0.312302
*RES
1 \$1040:1 \$1040:2 0.635800
2 \$1040:1 \$1040:3 0.035300
3 \$1040:1 \$1040:4 0.671100
*END

*D_NET \$1056 0.856341
*CAP
1 \$1056:1 0.848739
2 \$1056:1 u_destuffer\/ones[1] 0.003801
3 \$1056:1 u_destuffer\/ones[2] 0.003801
*RES
1 \$1056:1 \$1056:2 1.394800
2 \$1056:1 \$1056:3 0.963100
3 \$1056:1 \$1056:4 0.022500
4 \$1056:1 \$1056:5 0.486400
5 \$1056:1 \$1056:6 0.634600
6 \$1056:1 \$1056:7 0.306000
*END

*D_NET \$1060 1.477835
*CAP
1 \$1060:1 1.452977
2 \$1060:1 clknet_0_clk 0.003801
3 \$1060:1 u_destuffer\/_06_ 0.003801
4 \$1060:1 u_destuffer\/_08_ 0.005853
5 \$1060:1 u_destuffer\/_09_ 0.003801
6 \$1060:1 u_destuffer\/_10_ 0.003801
7 \$1060:1 u_destuffer\/ones[0] 0.003801
*RES
1 \$1060:1 \$1060:2 0.962000
2 \$1060:1 \$1060:3 0.946500
3 \$1060:1 \$1060:4 0.238400
4 \$1060:1 \$1060:5 0.454200
5 \$1060:1 \$1060:6 0.623400
6 \$1060:1 \$1060:7 0.438700
7 \$1060:1 \$1060:8 0.777200
8 \$1060:1 \$1060:9 0.100100
9 \$1060:1 \$1060:10 0.792700
10 \$1060:1 \$1060:11 0.269400
11 \$1060:1 \$1060:12 0.069100
12 \$1060:1 \$1060:13 0.608000
*END

*D_NET \$1062 1.073640
*CAP
1 \$1062:1 1.072799
2 \$1062:1 int_rst_n 0.000841
*RES
1 \$1062:1 \$1062:2 13.242300
2 \$1062:1 \$1062:3 21.267000
3 \$1062:1 \$1062:4 18.132100
4 \$1062:1 \$1062:5 16.491100
5 \$1062:1 \$1062:6 12.683900
*END

*D_NET \$1064 2.901639
*CAP
1 \$1064:1 2.886434
2 \$1064:1 clknet_3_4__leaf_clk 0.007603
3 \$1064:1 int_rst_n 0.003801
4 \$1064:1 u_line_state\/_1_ 0.003801
*RES
1 \$1064:1 \$1064:2 82.156100
2 \$1064:1 \$1064:3 110.065100
3 \$1064:1 \$1064:4 34.925800
4 \$1064:1 \$1064:5 20.494200
5 \$1064:1 \$1064:6 48.068200
6 \$1064:1 \$1064:7 65.091900
7 \$1064:1 \$1064:8 65.705800
8 \$1064:1 \$1064:9 46.925300
*END

*D_NET \$1065 1.077795
*CAP
1 \$1065:1 1.060991
2 \$1065:1 _061_ 0.003801
3 \$1065:1 tx_state[0] 0.009202
4 \$1065:1 tx_state[3] 0.003801
*RES
1 \$1065:1 \$1065:2 18.099400
2 \$1065:1 \$1065:3 14.315200
3 \$1065:1 \$1065:4 21.244800
4 \$1065:1 \$1065:5 16.029100
5 \$1065:1 \$1065:6 12.128100
*END

*D_NET \$1067 1.402755
*CAP
1 \$1067:1 1.382201
2 \$1067:1 _055_ 0.003801
3 \$1067:1 _056_ 0.010908
4 \$1067:1 _057_ 0.003801
5 \$1067:1 int_rst_n 0.002044
*RES
1 \$1067:1 \$1067:2 13.074400
2 \$1067:1 \$1067:3 20.054900
3 \$1067:1 \$1067:4 14.337600
4 \$1067:1 \$1067:5 17.436700
5 \$1067:1 \$1067:6 9.326200
6 \$1067:1 \$1067:7 8.577400
*END

*D_NET \$1068 1.393054
*CAP
1 \$1068:1 1.392228
2 \$1068:1 _108_ 0.000826
*RES
1 \$1068:1 \$1068:2 20.054900
2 \$1068:1 \$1068:3 13.074400
3 \$1068:1 \$1068:4 14.337600
4 \$1068:1 \$1068:5 17.436700
5 \$1068:1 \$1068:6 8.577400
6 \$1068:1 \$1068:7 9.326200
*END

*D_NET \$107 0.854472
*CAP
1 \$107:1 0.850671
2 \$107:1 _047_ 0.003801
*RES
1 \$107:1 \$107:2 0.963100
2 \$107:1 \$107:3 1.394800
3 \$107:1 \$107:4 0.486400
4 \$107:1 \$107:5 0.022500
5 \$107:1 \$107:6 0.306000
6 \$107:1 \$107:7 0.634600
*END

*D_NET \$1070 0.594410
*CAP
1 \$1070:1 0.594410
*RES
1 \$1070:1 \$1070:2 39.824400
2 \$1070:1 \$1070:3 19.912200
3 \$1070:1 \$1070:4 19.912200
*END

*D_NET \$1075 2.136638
*CAP
1 \$1075:1 2.124098
2 \$1075:1 int_rst_n 0.008739
3 \$1075:1 txdm 0.003801
*RES
1 \$1075:1 \$1075:2 23.606500
2 \$1075:1 \$1075:3 63.310200
3 \$1075:1 \$1075:4 48.046900
4 \$1075:1 \$1075:5 13.008400
5 \$1075:1 \$1075:6 48.146100
6 \$1075:1 \$1075:7 47.329500
*END

*D_NET \$1076 0.847806
*CAP
1 \$1076:1 0.840704
2 \$1076:1 txdm 0.005619
3 \$1076:1 u_line_state\/_1_ 0.001483
*RES
1 \$1076:1 \$1076:2 27.599400
2 \$1076:1 \$1076:3 23.748600
3 \$1076:1 \$1076:4 22.372100
4 \$1076:1 \$1076:5 12.741300
5 \$1076:1 \$1076:6 22.897300
6 \$1076:1 \$1076:7 13.523900
*END

*D_NET \$1077 0.835442
*CAP
1 \$1077:1 0.829823
2 \$1077:1 txdm 0.005619
*RES
1 \$1077:1 \$1077:2 16.527400
2 \$1077:1 \$1077:3 15.499600
3 \$1077:1 \$1077:4 10.523900
4 \$1077:1 \$1077:5 10.298700
5 \$1077:1 \$1077:6 13.857700
6 \$1077:1 \$1077:7 17.319100
*END

*D_NET \$1078 0.973478
*CAP
1 \$1078:1 0.973478
*RES
1 \$1078:1 \$1078:2 17.105400
2 \$1078:1 \$1078:3 17.360700
3 \$1078:1 \$1078:4 16.870200
4 \$1078:1 \$1078:5 8.058000
5 \$1078:1 \$1078:6 13.771500
6 \$1078:1 \$1078:7 8.212700
*END

*D_NET \$1079 1.343363
*CAP
1 \$1079:1 1.343363
*RES
1 \$1079:1 \$1079:2 19.166400
2 \$1079:1 \$1079:3 18.380300
3 \$1079:1 \$1079:4 30.960700
4 \$1079:1 \$1079:5 31.720400
5 \$1079:1 \$1079:6 37.481600
6 \$1079:1 \$1079:7 37.678600
*END

*D_NET \$108 0.861948
*CAP
1 \$108:1 0.842943
2 \$108:1 _050_ 0.003801
3 \$108:1 _054_ 0.003801
4 \$108:1 _078_ 0.003801
5 \$108:1 _140_ 0.003801
6 \$108:1 _141_ 0.003801
*RES
1 \$108:1 \$108:2 1.394800
2 \$108:1 \$108:3 0.963100
3 \$108:1 \$108:4 0.022500
4 \$108:1 \$108:5 0.486400
5 \$108:1 \$108:6 0.634600
6 \$108:1 \$108:7 0.306000
*END

*D_NET \$1083 3.495246
*CAP
1 \$1083:1 3.438569
2 \$1083:1 _054_ 0.033870
3 \$1083:1 _056_ 0.003801
4 \$1083:1 _072_ 0.007603
5 \$1083:1 stuffer_in_bit 0.003801
6 \$1083:1 tx_bitidx[1] 0.003801
7 \$1083:1 tx_bitidx[2] 0.003801
*RES
1 \$1083:1 \$1083:2 11.591800
2 \$1083:1 \$1083:3 26.719100
3 \$1083:1 \$1083:4 28.498100
4 \$1083:1 \$1083:5 23.040100
5 \$1083:1 \$1083:6 17.818900
6 \$1083:1 \$1083:7 13.120400
7 \$1083:1 \$1083:8 16.467600
8 \$1083:1 \$1083:9 21.549000
9 \$1083:1 \$1083:10 4.231900
10 \$1083:1 \$1083:11 5.659700
11 \$1083:1 \$1083:12 12.600500
12 \$1083:1 \$1083:13 22.915300
13 \$1083:1 \$1083:14 33.420600
14 \$1083:1 \$1083:15 17.713200
15 \$1083:1 \$1083:16 28.157400
16 \$1083:1 \$1083:17 7.756000
17 \$1083:1 \$1083:18 14.742400
18 \$1083:1 \$1083:19 19.685500
*END

*D_NET \$1097 0.362078
*CAP
1 \$1097:1 0.353288
2 \$1097:1 u_decoder\/_01_ 0.004989
3 \$1097:1 u_decoder\/_06_ 0.003801
*RES
1 \$1097:1 \$1097:2 0.768000
2 \$1097:1 \$1097:3 0.006800
3 \$1097:1 \$1097:4 0.774800
*END

*D_NET \$1098 0.360551
*CAP
1 \$1098:1 0.354867
2 \$1098:1 TxValid 0.001883
3 \$1098:1 int_rst_n 0.003801
*RES
1 \$1098:1 \$1098:2 0.774800
2 \$1098:1 \$1098:3 0.774800
3 \$1098:1 \$1098:4 0.001000
*END

*D_NET \$1099 0.358523
*CAP
1 \$1099:1 0.356962
2 \$1099:1 _105_ 0.001561
*RES
1 \$1099:1 \$1099:2 0.774800
2 \$1099:1 \$1099:3 0.774800
3 \$1099:1 \$1099:4 0.001000
*END

*D_NET \$1125 1.099120
*CAP
1 \$1125:1 1.099120
*RES
1 \$1125:1 \$1125:2 21.320900
2 \$1125:1 \$1125:3 15.496500
3 \$1125:1 \$1125:4 18.137300
4 \$1125:1 \$1125:5 15.871400
5 \$1125:1 \$1125:6 11.125600
*END

*D_NET \$1126 0.300449
*CAP
1 \$1126:1 0.296648
2 \$1126:1 u_destuffer\/_11_ 0.003801
*RES
1 \$1126:1 \$1126:2 0.639800
2 \$1126:1 \$1126:3 0.001000
3 \$1126:1 \$1126:4 0.639800
*END

*D_NET \$1128 1.596996
*CAP
1 \$1128:1 1.576108
2 \$1128:1 clknet_0_clk 0.003801
3 \$1128:1 int_rst_n 0.003801
4 \$1128:1 u_decoder\/_00_ 0.003801
5 \$1128:1 u_destuffer\/_08_ 0.003801
6 \$1128:1 u_destuffer\/_09_ 0.005684
*RES
1 \$1128:1 \$1128:2 1.725700
2 \$1128:1 \$1128:3 1.725700
3 \$1128:1 \$1128:4 0.799300
4 \$1128:1 \$1128:5 1.053600
5 \$1128:1 \$1128:6 1.053600
6 \$1128:1 \$1128:7 0.799300
*END

*D_NET \$1130 1.080759
*CAP
1 \$1130:1 1.065441
2 \$1130:1 dec_data_bit 0.003834
3 \$1130:1 dec_line_valid 0.003964
4 \$1130:1 u_decoder\/_07_ 0.007520
*RES
1 \$1130:1 \$1130:2 13.242300
2 \$1130:1 \$1130:3 21.267000
3 \$1130:1 \$1130:4 18.132100
4 \$1130:1 \$1130:5 12.683900
5 \$1130:1 \$1130:6 16.491100
*END

*D_NET \$1131 2.908487
*CAP
1 \$1131:1 2.879357
2 \$1131:1 _054_ 0.014403
3 \$1131:1 clknet_3_3__leaf_clk 0.002066
4 \$1131:1 u_decoder\/_06_ 0.003801
5 \$1131:1 u_decoder\/_07_ 0.008860
*RES
1 \$1131:1 \$1131:2 82.156100
2 \$1131:1 \$1131:3 110.065100
3 \$1131:1 \$1131:4 34.925800
4 \$1131:1 \$1131:5 20.494200
5 \$1131:1 \$1131:6 48.068200
6 \$1131:1 \$1131:7 65.091900
7 \$1131:1 \$1131:8 65.705800
8 \$1131:1 \$1131:9 46.925300
*END

*D_NET \$1133 2.150624
*CAP
1 \$1133:1 2.109642
2 \$1133:1 dec_line_bit 0.004678
3 \$1133:1 u_decoder\/_01_ 0.003801
4 \$1133:1 u_decoder\/_06_ 0.027971
5 \$1133:1 u_decoder\/_07_ 0.004532
*RES
1 \$1133:1 \$1133:2 63.310200
2 \$1133:1 \$1133:3 48.046900
3 \$1133:1 \$1133:4 13.008400
4 \$1133:1 \$1133:5 23.606500
5 \$1133:1 \$1133:6 48.146100
6 \$1133:1 \$1133:7 47.329500
*END

*D_NET \$1134 0.844314
*CAP
1 \$1134:1 0.844314
*RES
1 \$1134:1 \$1134:2 23.748600
2 \$1134:1 \$1134:3 27.599400
3 \$1134:1 \$1134:4 22.372100
4 \$1134:1 \$1134:5 12.741300
5 \$1134:1 \$1134:6 22.897300
6 \$1134:1 \$1134:7 13.523900
*END

*D_NET \$1135 0.832679
*CAP
1 \$1135:1 0.832679
*RES
1 \$1135:1 \$1135:2 15.499600
2 \$1135:1 \$1135:3 16.527400
3 \$1135:1 \$1135:4 10.298700
4 \$1135:1 \$1135:5 13.857700
5 \$1135:1 \$1135:6 10.523900
6 \$1135:1 \$1135:7 17.319100
*END

*D_NET \$1136 0.980351
*CAP
1 \$1136:1 0.966375
2 \$1136:1 u_decoder\/prev_line 0.013976
*RES
1 \$1136:1 \$1136:2 17.360700
2 \$1136:1 \$1136:3 17.105400
3 \$1136:1 \$1136:4 16.870200
4 \$1136:1 \$1136:5 8.058000
5 \$1136:1 \$1136:6 13.771500
6 \$1136:1 \$1136:7 8.212700
*END

*D_NET \$1137 1.346126
*CAP
1 \$1137:1 1.340507
2 \$1137:1 u_decoder\/prev_line 0.005619
*RES
1 \$1137:1 \$1137:2 37.481600
2 \$1137:1 \$1137:3 18.380300
3 \$1137:1 \$1137:4 19.166400
4 \$1137:1 \$1137:5 30.960700
5 \$1137:1 \$1137:6 31.720400
6 \$1137:1 \$1137:7 37.678600
*END

*D_NET \$1138 2.517854
*CAP
1 \$1138:1 2.503596
2 \$1138:1 txdp 0.014258
*RES
1 \$1138:1 \$1138:2 36.428000
2 \$1138:1 \$1138:3 36.954100
3 \$1138:1 \$1138:4 25.810100
4 \$1138:1 \$1138:5 17.679900
5 \$1138:1 \$1138:6 17.460200
6 \$1138:1 \$1138:7 17.679900
7 \$1138:1 \$1138:8 17.460200
8 \$1138:1 \$1138:9 25.357500
9 \$1138:1 \$1138:10 36.428000
10 \$1138:1 \$1138:11 25.357500
11 \$1138:1 \$1138:12 25.810100
12 \$1138:1 \$1138:13 36.954100
*END

*D_NET \$1139 1.039242
*CAP
1 \$1139:1 1.013163
2 \$1139:1 TxValid 0.005976
3 \$1139:1 _087_ 0.003801
4 \$1139:1 tx_state[0] 0.016302
*RES
1 \$1139:1 \$1139:2 1.002700
2 \$1139:1 \$1139:3 1.410200
3 \$1139:1 \$1139:4 0.075400
4 \$1139:1 \$1139:5 0.444400
5 \$1139:1 \$1139:6 0.643400
6 \$1139:1 \$1139:7 0.284000
*END

*D_NET \$1140 0.362684
*CAP
1 \$1140:1 0.352663
2 \$1140:1 _061_ 0.006220
3 \$1140:1 next_valid 0.003801
*RES
1 \$1140:1 \$1140:2 0.774800
2 \$1140:1 \$1140:3 0.774800
3 \$1140:1 \$1140:4 0.001000
*END

*D_NET \$1142 1.527655
*CAP
1 \$1142:1 1.512451
2 \$1142:1 _005_ 0.003801
3 \$1142:1 _055_ 0.003801
4 \$1142:1 _056_ 0.003801
5 \$1142:1 _077_ 0.003801
*RES
1 \$1142:1 \$1142:2 1.011800
2 \$1142:1 \$1142:3 1.011800
3 \$1142:1 \$1142:4 0.643900
4 \$1142:1 \$1142:5 0.276000
5 \$1142:1 \$1142:6 0.459900
6 \$1142:1 \$1142:7 0.827800
7 \$1142:1 \$1142:8 0.092000
8 \$1142:1 \$1142:9 0.827800
9 \$1142:1 \$1142:10 0.459900
10 \$1142:1 \$1142:11 0.092000
11 \$1142:1 \$1142:12 0.643900
12 \$1142:1 \$1142:13 0.276000
*END

*D_NET \$1169 0.312302
*CAP
1 \$1169:1 0.312302
*RES
1 \$1169:1 \$1169:2 0.635800
2 \$1169:1 \$1169:3 0.035300
3 \$1169:1 \$1169:4 0.671100
*END

*D_NET \$1170 0.861005
*CAP
1 \$1170:1 0.843918
2 \$1170:1 _019_ 0.003801
3 \$1170:1 _056_ 0.005684
4 \$1170:1 _104_ 0.003801
5 \$1170:1 tx_bitidx[0] 0.003801
*RES
1 \$1170:1 \$1170:2 1.394800
2 \$1170:1 \$1170:3 0.963100
3 \$1170:1 \$1170:4 0.022500
4 \$1170:1 \$1170:5 0.486400
5 \$1170:1 \$1170:6 0.634600
6 \$1170:1 \$1170:7 0.306000
*END

*D_NET \$1188 2.902332
*CAP
1 \$1188:1 2.885718
2 \$1188:1 clknet_3_2__leaf_clk 0.004133
3 \$1188:1 destuff_in_valid 0.003801
4 \$1188:1 int_rst_n 0.004879
5 \$1188:1 u_decoder\/_00_ 0.003801
*RES
1 \$1188:1 \$1188:2 82.156100
2 \$1188:1 \$1188:3 110.065100
3 \$1188:1 \$1188:4 34.925800
4 \$1188:1 \$1188:5 20.494200
5 \$1188:1 \$1188:6 48.068200
6 \$1188:1 \$1188:7 65.091900
7 \$1188:1 \$1188:8 65.705800
8 \$1188:1 \$1188:9 46.925300
*END

*D_NET \$1189 0.839829
*CAP
1 \$1189:1 0.825289
2 \$1189:1 int_rst_n 0.014540
*RES
1 \$1189:1 \$1189:2 16.527400
2 \$1189:1 \$1189:3 15.499600
3 \$1189:1 \$1189:4 10.523900
4 \$1189:1 \$1189:5 10.298700
5 \$1189:1 \$1189:6 13.857700
6 \$1189:1 \$1189:7 17.319100
*END

*D_NET \$1190 1.346007
*CAP
1 \$1190:1 1.340630
2 \$1190:1 _145_ 0.005377
*RES
1 \$1190:1 \$1190:2 19.166400
2 \$1190:1 \$1190:3 18.380300
3 \$1190:1 \$1190:4 30.960700
4 \$1190:1 \$1190:5 31.720400
5 \$1190:1 \$1190:6 37.481600
6 \$1190:1 \$1190:7 37.678600
*END

*D_NET \$1191 0.344614
*CAP
1 \$1191:1 0.331227
2 \$1191:1 dec_line_valid 0.003801
3 \$1191:1 line_state[1] 0.007603
4 \$1191:1 u_eop_detector\/_08_ 0.001983
*RES
1 \$1191:1 \$1191:2 0.718300
2 \$1191:1 \$1191:3 0.011500
3 \$1191:1 \$1191:4 0.729800
*END

*D_NET \$1195 1.709224
*CAP
1 \$1195:1 1.697681
2 \$1195:1 TxValid 0.011543
*RES
1 \$1195:1 \$1195:2 16.448400
2 \$1195:1 \$1195:3 23.905800
3 \$1195:1 \$1195:4 23.905800
4 \$1195:1 \$1195:5 16.161900
5 \$1195:1 \$1195:6 25.339300
6 \$1195:1 \$1195:7 17.875500
7 \$1195:1 \$1195:8 15.064400
8 \$1195:1 \$1195:9 22.317000
*END

*D_NET \$1196 1.145934
*CAP
1 \$1196:1 1.092157
2 \$1196:1 _056_ 0.017251
3 \$1196:1 tx_state[0] 0.003801
4 \$1196:1 tx_state[3] 0.032725
*RES
1 \$1196:1 \$1196:2 35.373400
2 \$1196:1 \$1196:3 28.301000
3 \$1196:1 \$1196:4 31.303900
4 \$1196:1 \$1196:5 31.869700
*END

*D_NET \$1197 2.902373
*CAP
1 \$1197:1 2.885675
2 \$1197:1 _054_ 0.003801
3 \$1197:1 _063_ 0.003801
4 \$1197:1 clknet_3_7__leaf_clk 0.005295
5 \$1197:1 tx_state[3] 0.003801
*RES
1 \$1197:1 \$1197:2 82.156100
2 \$1197:1 \$1197:3 110.065100
3 \$1197:1 \$1197:4 34.925800
4 \$1197:1 \$1197:5 20.494200
5 \$1197:1 \$1197:6 48.068200
6 \$1197:1 \$1197:7 65.091900
7 \$1197:1 \$1197:8 65.705800
8 \$1197:1 \$1197:9 46.925300
*END

*D_NET \$1198 0.832679
*CAP
1 \$1198:1 0.832679
*RES
1 \$1198:1 \$1198:2 16.527400
2 \$1198:1 \$1198:3 15.499600
3 \$1198:1 \$1198:4 10.523900
4 \$1198:1 \$1198:5 10.298700
5 \$1198:1 \$1198:6 13.857700
6 \$1198:1 \$1198:7 17.319100
*END

*D_NET \$1199 1.346126
*CAP
1 \$1199:1 1.340507
2 \$1199:1 _005_ 0.005619
*RES
1 \$1199:1 \$1199:2 19.166400
2 \$1199:1 \$1199:3 18.380300
3 \$1199:1 \$1199:4 30.960700
4 \$1199:1 \$1199:5 31.720400
5 \$1199:1 \$1199:6 37.481600
6 \$1199:1 \$1199:7 37.678600
*END

*D_NET \$1200 1.602699
*CAP
1 \$1200:1 1.591295
2 \$1200:1 _103_ 0.003801
3 \$1200:1 stuffer_in_bit 0.007603
*RES
1 \$1200:1 \$1200:2 25.138500
2 \$1200:1 \$1200:3 29.406800
3 \$1200:1 \$1200:4 16.171900
4 \$1200:1 \$1200:5 27.961100
5 \$1200:1 \$1200:6 20.891400
6 \$1200:1 \$1200:7 26.784800
7 \$1200:1 \$1200:8 17.030100
*END

*D_NET \$1202 2.900388
*CAP
1 \$1202:1 2.887727
2 \$1202:1 _019_ 0.003801
3 \$1202:1 tx_bitidx[0] 0.008860
*RES
1 \$1202:1 \$1202:2 82.156100
2 \$1202:1 \$1202:3 110.065100
3 \$1202:1 \$1202:4 34.925800
4 \$1202:1 \$1202:5 20.494200
5 \$1202:1 \$1202:6 48.068200
6 \$1202:1 \$1202:7 65.091900
7 \$1202:1 \$1202:8 65.705800
8 \$1202:1 \$1202:9 46.925300
*END

*D_NET \$1203 0.832679
*CAP
1 \$1203:1 0.832679
*RES
1 \$1203:1 \$1203:2 16.527400
2 \$1203:1 \$1203:3 15.499600
3 \$1203:1 \$1203:4 10.523900
4 \$1203:1 \$1203:5 10.298700
5 \$1203:1 \$1203:6 13.857700
6 \$1203:1 \$1203:7 17.319100
*END

*D_NET \$1204 1.343570
*CAP
1 \$1204:1 1.343149
2 \$1204:1 tx_bitidx[0] 0.000421
*RES
1 \$1204:1 \$1204:2 19.166400
2 \$1204:1 \$1204:3 18.380300
3 \$1204:1 \$1204:4 30.960700
4 \$1204:1 \$1204:5 31.720400
5 \$1204:1 \$1204:6 37.481600
6 \$1204:1 \$1204:7 37.678600
*END

*D_NET \$1206 2.139923
*CAP
1 \$1206:1 2.120702
2 \$1206:1 _145_ 0.008892
3 \$1206:1 int_rst_n 0.003801
4 \$1206:1 u_decoder\/_02_ 0.006528
*RES
1 \$1206:1 \$1206:2 23.606500
2 \$1206:1 \$1206:3 63.310200
3 \$1206:1 \$1206:4 48.046900
4 \$1206:1 \$1206:5 13.008400
5 \$1206:1 \$1206:6 48.146100
6 \$1206:1 \$1206:7 47.329500
*END

*D_NET \$1207 0.850569
*CAP
1 \$1207:1 0.837848
2 \$1207:1 destuff_in_valid 0.005619
3 \$1207:1 int_rst_n 0.005619
4 \$1207:1 u_decoder\/_00_ 0.001483
*RES
1 \$1207:1 \$1207:2 27.599400
2 \$1207:1 \$1207:3 23.748600
3 \$1207:1 \$1207:4 22.372100
4 \$1207:1 \$1207:5 12.741300
5 \$1207:1 \$1207:6 22.897300
6 \$1207:1 \$1207:7 13.523900
*END

*D_NET \$1208 0.979390
*CAP
1 \$1208:1 0.967367
2 \$1208:1 _145_ 0.003801
3 \$1208:1 u_decoder\/_02_ 0.008222
*RES
1 \$1208:1 \$1208:2 17.105400
2 \$1208:1 \$1208:3 17.360700
3 \$1208:1 \$1208:4 16.870200
4 \$1208:1 \$1208:5 8.058000
5 \$1208:1 \$1208:6 13.771500
6 \$1208:1 \$1208:7 8.212700
*END

*D_NET \$1209 1.004883
*CAP
1 \$1209:1 1.004883
*RES
1 \$1209:1 \$1209:2 17.531100
2 \$1209:1 \$1209:3 21.630700
3 \$1209:1 \$1209:4 16.737100
4 \$1209:1 \$1209:5 15.752800
5 \$1209:1 \$1209:6 9.756800
*END

*D_NET \$1213 2.143905
*CAP
1 \$1213:1 2.116587
2 \$1213:1 _008_ 0.015183
3 \$1213:1 _054_ 0.004532
4 \$1213:1 _063_ 0.007603
*RES
1 \$1213:1 \$1213:2 23.606500
2 \$1213:1 \$1213:3 63.310200
3 \$1213:1 \$1213:4 48.046900
4 \$1213:1 \$1213:5 13.008400
5 \$1213:1 \$1213:6 48.146100
6 \$1213:1 \$1213:7 47.329500
*END

*D_NET \$1214 0.847077
*CAP
1 \$1214:1 0.841458
2 \$1214:1 _054_ 0.005619
*RES
1 \$1214:1 \$1214:2 27.599400
2 \$1214:1 \$1214:3 23.748600
3 \$1214:1 \$1214:4 22.372100
4 \$1214:1 \$1214:5 12.741300
5 \$1214:1 \$1214:6 22.897300
6 \$1214:1 \$1214:7 13.523900
*END

*D_NET \$1215 0.975347
*CAP
1 \$1215:1 0.971546
2 \$1215:1 _005_ 0.003801
*RES
1 \$1215:1 \$1215:2 17.105400
2 \$1215:1 \$1215:3 17.360700
3 \$1215:1 \$1215:4 16.870200
4 \$1215:1 \$1215:5 8.058000
5 \$1215:1 \$1215:6 13.771500
6 \$1215:1 \$1215:7 8.212700
*END

*D_NET \$1216 2.140351
*CAP
1 \$1216:1 2.120261
2 \$1216:1 _019_ 0.020090
*RES
1 \$1216:1 \$1216:2 23.606500
2 \$1216:1 \$1216:3 63.310200
3 \$1216:1 \$1216:4 48.046900
4 \$1216:1 \$1216:5 13.008400
5 \$1216:1 \$1216:6 48.146100
6 \$1216:1 \$1216:7 47.329500
*END

*D_NET \$1217 0.844314
*CAP
1 \$1217:1 0.844314
*RES
1 \$1217:1 \$1217:2 27.599400
2 \$1217:1 \$1217:3 23.748600
3 \$1217:1 \$1217:4 22.372100
4 \$1217:1 \$1217:5 12.741300
5 \$1217:1 \$1217:6 22.897300
6 \$1217:1 \$1217:7 13.523900
*END

*D_NET \$1218 0.973478
*CAP
1 \$1218:1 0.973478
*RES
1 \$1218:1 \$1218:2 17.105400
2 \$1218:1 \$1218:3 17.360700
3 \$1218:1 \$1218:4 16.870200
4 \$1218:1 \$1218:5 8.058000
5 \$1218:1 \$1218:6 13.771500
6 \$1218:1 \$1218:7 8.212700
*END

*D_NET \$1243 0.367053
*CAP
1 \$1243:1 0.348147
2 \$1243:1 _119_ 0.006220
3 \$1243:1 _120_ 0.008885
4 \$1243:1 enc_line_valid 0.003801
*RES
1 \$1243:1 \$1243:2 0.774800
2 \$1243:1 \$1243:3 0.774800
3 \$1243:1 \$1243:4 0.001000
*END

*D_NET \$1244 0.359625
*CAP
1 \$1244:1 0.355824
2 \$1244:1 _064_ 0.003801
*RES
1 \$1244:1 \$1244:2 0.774800
2 \$1244:1 \$1244:3 0.774800
3 \$1244:1 \$1244:4 0.001000
*END

*D_NET \$1246 0.360815
*CAP
1 \$1246:1 0.354595
2 \$1246:1 stuff_in_ready 0.006220
*RES
1 \$1246:1 \$1246:2 0.774800
2 \$1246:1 \$1246:3 0.774800
3 \$1246:1 \$1246:4 0.001000
*END

*D_NET \$1262 2.138407
*CAP
1 \$1262:1 2.122270
2 \$1262:1 u_destuffer\/_02_ 0.016137
*RES
1 \$1262:1 \$1262:2 63.310200
2 \$1262:1 \$1262:3 48.046900
3 \$1262:1 \$1262:4 13.008400
4 \$1262:1 \$1262:5 23.606500
5 \$1262:1 \$1262:6 48.146100
6 \$1262:1 \$1262:7 47.329500
*END

*D_NET \$1263 2.135550
*CAP
1 \$1263:1 2.125221
2 \$1263:1 u_destuffer\/_01_ 0.003801
3 \$1263:1 u_destuffer\/_10_ 0.006528
*RES
1 \$1263:1 \$1263:2 63.310200
2 \$1263:1 \$1263:3 48.046900
3 \$1263:1 \$1263:4 13.008400
4 \$1263:1 \$1263:5 23.606500
5 \$1263:1 \$1263:6 48.146100
6 \$1263:1 \$1263:7 47.329500
*END

*D_NET \$1264 2.522325
*CAP
1 \$1264:1 2.498974
2 \$1264:1 u_destuffer\/_07_ 0.023351
*RES
1 \$1264:1 \$1264:2 36.428000
2 \$1264:1 \$1264:3 36.954100
3 \$1264:1 \$1264:4 17.460200
4 \$1264:1 \$1264:5 17.679900
5 \$1264:1 \$1264:6 25.810100
6 \$1264:1 \$1264:7 17.679900
7 \$1264:1 \$1264:8 25.357500
8 \$1264:1 \$1264:9 17.460200
9 \$1264:1 \$1264:10 36.428000
10 \$1264:1 \$1264:11 25.357500
11 \$1264:1 \$1264:12 25.810100
12 \$1264:1 \$1264:13 36.954100
*END

*D_NET \$1266 2.139848
*CAP
1 \$1266:1 2.120780
2 \$1266:1 _121_ 0.006528
3 \$1266:1 txdp 0.003801
4 \$1266:1 u_eop_detector\/_08_ 0.008739
*RES
1 \$1266:1 \$1266:2 63.310200
2 \$1266:1 \$1266:3 48.046900
3 \$1266:1 \$1266:4 13.008400
4 \$1266:1 \$1266:5 23.606500
5 \$1266:1 \$1266:6 48.146100
6 \$1266:1 \$1266:7 47.329500
*END

*D_NET \$1268 2.132340
*CAP
1 \$1268:1 2.128539
2 \$1268:1 _005_ 0.003801
*RES
1 \$1268:1 \$1268:2 63.310200
2 \$1268:1 \$1268:3 48.046900
3 \$1268:1 \$1268:4 13.008400
4 \$1268:1 \$1268:5 23.606500
5 \$1268:1 \$1268:6 48.146100
6 \$1268:1 \$1268:7 47.329500
*END

*D_NET \$1269 2.896031
*CAP
1 \$1269:1 2.892230
2 \$1269:1 clknet_3_2__leaf_clk 0.003801
*RES
1 \$1269:1 \$1269:2 82.156100
2 \$1269:1 \$1269:3 110.065100
3 \$1269:1 \$1269:4 34.925800
4 \$1269:1 \$1269:5 20.494200
5 \$1269:1 \$1269:6 48.068200
6 \$1269:1 \$1269:7 65.091900
7 \$1269:1 \$1269:8 65.705800
8 \$1269:1 \$1269:9 46.925300
*END

*D_NET \$1270 0.844479
*CAP
1 \$1270:1 0.844143
2 \$1270:1 u_destuffer\/_02_ 0.000336
*RES
1 \$1270:1 \$1270:2 23.748600
2 \$1270:1 \$1270:3 27.599400
3 \$1270:1 \$1270:4 22.372100
4 \$1270:1 \$1270:5 12.741300
5 \$1270:1 \$1270:6 22.897300
6 \$1270:1 \$1270:7 13.523900
*END

*D_NET \$1271 0.832679
*CAP
1 \$1271:1 0.832679
*RES
1 \$1271:1 \$1271:2 15.499600
2 \$1271:1 \$1271:3 16.527400
3 \$1271:1 \$1271:4 10.298700
4 \$1271:1 \$1271:5 13.857700
5 \$1271:1 \$1271:6 10.523900
6 \$1271:1 \$1271:7 17.319100
*END

*D_NET \$1272 0.973478
*CAP
1 \$1272:1 0.973478
*RES
1 \$1272:1 \$1272:2 17.360700
2 \$1272:1 \$1272:3 17.105400
3 \$1272:1 \$1272:4 16.870200
4 \$1272:1 \$1272:5 8.058000
5 \$1272:1 \$1272:6 13.771500
6 \$1272:1 \$1272:7 8.212700
*END

*D_NET \$1273 1.345699
*CAP
1 \$1273:1 1.340948
2 \$1273:1 destuff_in_valid 0.003801
3 \$1273:1 u_destuffer\/ones[1] 0.000950
*RES
1 \$1273:1 \$1273:2 37.481600
2 \$1273:1 \$1273:3 18.380300
3 \$1273:1 \$1273:4 19.166400
4 \$1273:1 \$1273:5 30.960700
5 \$1273:1 \$1273:6 31.720400
6 \$1273:1 \$1273:7 37.678600
*END

*D_NET \$1274 2.896031
*CAP
1 \$1274:1 2.892230
2 \$1274:1 clknet_3_2__leaf_clk 0.003801
*RES
1 \$1274:1 \$1274:2 82.156100
2 \$1274:1 \$1274:3 110.065100
3 \$1274:1 \$1274:4 34.925800
4 \$1274:1 \$1274:5 20.494200
5 \$1274:1 \$1274:6 48.068200
6 \$1274:1 \$1274:7 65.091900
7 \$1274:1 \$1274:8 65.705800
8 \$1274:1 \$1274:9 46.925300
*END

*D_NET \$1275 0.844534
*CAP
1 \$1275:1 0.844087
2 \$1275:1 u_destuffer\/_01_ 0.000447
*RES
1 \$1275:1 \$1275:2 23.748600
2 \$1275:1 \$1275:3 27.599400
3 \$1275:1 \$1275:4 22.372100
4 \$1275:1 \$1275:5 12.741300
5 \$1275:1 \$1275:6 22.897300
6 \$1275:1 \$1275:7 13.523900
*END

*D_NET \$1276 0.832679
*CAP
1 \$1276:1 0.832679
*RES
1 \$1276:1 \$1276:2 15.499600
2 \$1276:1 \$1276:3 16.527400
3 \$1276:1 \$1276:4 10.298700
4 \$1276:1 \$1276:5 13.857700
5 \$1276:1 \$1276:6 10.523900
6 \$1276:1 \$1276:7 17.319100
*END

*D_NET \$1277 0.984461
*CAP
1 \$1277:1 0.962127
2 \$1277:1 destuff_in_valid 0.013976
3 \$1277:1 u_destuffer\/_10_ 0.008222
4 \$1277:1 u_destuffer\/ones[0] 0.000136
*RES
1 \$1277:1 \$1277:2 17.360700
2 \$1277:1 \$1277:3 17.105400
3 \$1277:1 \$1277:4 16.870200
4 \$1277:1 \$1277:5 8.058000
5 \$1277:1 \$1277:6 13.771500
6 \$1277:1 \$1277:7 8.212700
*END

*D_NET \$1278 1.350759
*CAP
1 \$1278:1 1.335719
2 \$1278:1 destuff_in_valid 0.005619
3 \$1278:1 u_destuffer\/ones[0] 0.009421
*RES
1 \$1278:1 \$1278:2 37.481600
2 \$1278:1 \$1278:3 18.380300
3 \$1278:1 \$1278:4 19.166400
4 \$1278:1 \$1278:5 30.960700
5 \$1278:1 \$1278:6 31.720400
6 \$1278:1 \$1278:7 37.678600
*END

*D_NET \$1279 1.075095
*CAP
1 \$1279:1 1.071294
2 \$1279:1 dec_data_valid 0.003801
*RES
1 \$1279:1 \$1279:2 13.242300
2 \$1279:1 \$1279:3 21.267000
3 \$1279:1 \$1279:4 18.132100
4 \$1279:1 \$1279:5 12.683900
5 \$1279:1 \$1279:6 16.491100
*END

*D_NET \$1280 2.900103
*CAP
1 \$1280:1 2.888022
2 \$1280:1 _044_ 0.003801
3 \$1280:1 clknet_3_3__leaf_clk 0.004479
4 \$1280:1 u_eop_detector\/_08_ 0.003801
*RES
1 \$1280:1 \$1280:2 82.156100
2 \$1280:1 \$1280:3 110.065100
3 \$1280:1 \$1280:4 34.925800
4 \$1280:1 \$1280:5 20.494200
5 \$1280:1 \$1280:6 48.068200
6 \$1280:1 \$1280:7 65.091900
7 \$1280:1 \$1280:8 65.705800
8 \$1280:1 \$1280:9 46.925300
*END

*D_NET \$1282 0.847077
*CAP
1 \$1282:1 0.841458
2 \$1282:1 txdp 0.005619
*RES
1 \$1282:1 \$1282:2 23.748600
2 \$1282:1 \$1282:3 27.599400
3 \$1282:1 \$1282:4 22.372100
4 \$1282:1 \$1282:5 12.741300
5 \$1282:1 \$1282:6 22.897300
6 \$1282:1 \$1282:7 13.523900
*END

*D_NET \$1283 0.834406
*CAP
1 \$1283:1 0.830894
2 \$1283:1 txdp 0.003512
*RES
1 \$1283:1 \$1283:2 15.499600
2 \$1283:1 \$1283:3 16.527400
3 \$1283:1 \$1283:4 10.298700
4 \$1283:1 \$1283:5 13.857700
5 \$1283:1 \$1283:6 10.523900
6 \$1283:1 \$1283:7 17.319100
*END

*D_NET \$1284 0.983715
*CAP
1 \$1284:1 0.962899
2 \$1284:1 _054_ 0.006704
3 \$1284:1 _119_ 0.013976
4 \$1284:1 enc_line_valid 0.000136
*RES
1 \$1284:1 \$1284:2 17.360700
2 \$1284:1 \$1284:3 17.105400
3 \$1284:1 \$1284:4 16.870200
4 \$1284:1 \$1284:5 8.058000
5 \$1284:1 \$1284:6 13.771500
6 \$1284:1 \$1284:7 8.212700
*END

*D_NET \$1285 1.350839
*CAP
1 \$1285:1 1.335635
2 \$1285:1 _054_ 0.000165
3 \$1285:1 _119_ 0.005619
4 \$1285:1 _120_ 0.003801
5 \$1285:1 enc_line_valid 0.005619
*RES
1 \$1285:1 \$1285:2 37.481600
2 \$1285:1 \$1285:3 18.380300
3 \$1285:1 \$1285:4 19.166400
4 \$1285:1 \$1285:5 30.960700
5 \$1285:1 \$1285:6 31.720400
6 \$1285:1 \$1285:7 37.678600
*END

*D_NET \$1286 1.396793
*CAP
1 \$1286:1 1.388364
2 \$1286:1 TxValid 0.003801
3 \$1286:1 tx_state[0] 0.004628
*RES
1 \$1286:1 \$1286:2 13.074400
2 \$1286:1 \$1286:3 14.337600
3 \$1286:1 \$1286:4 20.054900
4 \$1286:1 \$1286:5 17.436700
5 \$1286:1 \$1286:6 9.326200
6 \$1286:1 \$1286:7 8.577400
*END

*D_NET \$1288 2.896031
*CAP
1 \$1288:1 2.892230
2 \$1288:1 clknet_3_7__leaf_clk 0.003801
*RES
1 \$1288:1 \$1288:2 82.156100
2 \$1288:1 \$1288:3 110.065100
3 \$1288:1 \$1288:4 34.925800
4 \$1288:1 \$1288:5 20.494200
5 \$1288:1 \$1288:6 48.068200
6 \$1288:1 \$1288:7 65.091900
7 \$1288:1 \$1288:8 65.705800
8 \$1288:1 \$1288:9 46.925300
*END

*D_NET \$1289 0.845492
*CAP
1 \$1289:1 0.843096
2 \$1289:1 _054_ 0.002396
*RES
1 \$1289:1 \$1289:2 23.748600
2 \$1289:1 \$1289:3 27.599400
3 \$1289:1 \$1289:4 22.372100
4 \$1289:1 \$1289:5 12.741300
5 \$1289:1 \$1289:6 22.897300
6 \$1289:1 \$1289:7 13.523900
*END

*D_NET \$1290 0.832679
*CAP
1 \$1290:1 0.832679
*RES
1 \$1290:1 \$1290:2 15.499600
2 \$1290:1 \$1290:3 16.527400
3 \$1290:1 \$1290:4 10.298700
4 \$1290:1 \$1290:5 13.857700
5 \$1290:1 \$1290:6 10.523900
6 \$1290:1 \$1290:7 17.319100
*END

*D_NET \$1291 0.973478
*CAP
1 \$1291:1 0.973478
*RES
1 \$1291:1 \$1291:2 17.360700
2 \$1291:1 \$1291:3 17.105400
3 \$1291:1 \$1291:4 16.870200
4 \$1291:1 \$1291:5 8.058000
5 \$1291:1 \$1291:6 13.771500
6 \$1291:1 \$1291:7 8.212700
*END

*D_NET \$1292 1.343363
*CAP
1 \$1292:1 1.343363
*RES
1 \$1292:1 \$1292:2 37.481600
2 \$1292:1 \$1292:3 18.380300
3 \$1292:1 \$1292:4 19.166400
4 \$1292:1 \$1292:5 30.960700
5 \$1292:1 \$1292:6 31.720400
6 \$1292:1 \$1292:7 37.678600
*END

*D_NET \$1312 0.315771
*CAP
1 \$1312:1 0.308717
2 \$1312:1 _060_ 0.007054
*RES
1 \$1312:1 \$1312:2 0.635800
2 \$1312:1 \$1312:3 0.035300
3 \$1312:1 \$1312:4 0.671100
*END

*D_NET \$1326 2.896562
*CAP
1 \$1326:1 2.891683
2 \$1326:1 rx_receiving 0.004879
*RES
1 \$1326:1 \$1326:2 82.156100
2 \$1326:1 \$1326:3 110.065100
3 \$1326:1 \$1326:4 34.925800
4 \$1326:1 \$1326:5 20.494200
5 \$1326:1 \$1326:6 48.068200
6 \$1326:1 \$1326:7 65.091900
7 \$1326:1 \$1326:8 65.705800
8 \$1326:1 \$1326:9 46.925300
*END

*D_NET \$1328 2.899769
*CAP
1 \$1328:1 2.888366
2 \$1328:1 _007_ 0.003801
3 \$1328:1 _065_ 0.003801
4 \$1328:1 clknet_3_6__leaf_clk 0.003801
*RES
1 \$1328:1 \$1328:2 82.156100
2 \$1328:1 \$1328:3 110.065100
3 \$1328:1 \$1328:4 34.925800
4 \$1328:1 \$1328:5 20.494200
5 \$1328:1 \$1328:6 48.068200
6 \$1328:1 \$1328:7 65.091900
7 \$1328:1 \$1328:8 65.705800
8 \$1328:1 \$1328:9 46.925300
*END

*D_NET \$1329 2.897900
*CAP
1 \$1329:1 2.890298
2 \$1329:1 _003_ 0.003801
3 \$1329:1 clknet_3_6__leaf_clk 0.003801
*RES
1 \$1329:1 \$1329:2 82.156100
2 \$1329:1 \$1329:3 110.065100
3 \$1329:1 \$1329:4 34.925800
4 \$1329:1 \$1329:5 20.494200
5 \$1329:1 \$1329:6 48.068200
6 \$1329:1 \$1329:7 65.091900
7 \$1329:1 \$1329:8 65.705800
8 \$1329:1 \$1329:9 46.925300
*END

*D_NET \$133 2.901639
*CAP
1 \$133:1 2.886434
2 \$133:1 Reset 0.003801
3 \$133:1 clknet_3_1__leaf_clk 0.005867
4 \$133:1 line_state[0] 0.005537
*RES
1 \$133:1 \$133:2 82.156100
2 \$133:1 \$133:3 110.065100
3 \$133:1 \$133:4 34.925800
4 \$133:1 \$133:5 20.494200
5 \$133:1 \$133:6 48.068200
6 \$133:1 \$133:7 65.091900
7 \$133:1 \$133:8 65.705800
8 \$133:1 \$133:9 46.925300
*END

*D_NET \$1330 2.897901
*CAP
1 \$1330:1 2.890298
2 \$1330:1 clknet_3_7__leaf_clk 0.007603
*RES
1 \$1330:1 \$1330:2 82.156100
2 \$1330:1 \$1330:3 110.065100
3 \$1330:1 \$1330:4 34.925800
4 \$1330:1 \$1330:5 20.494200
5 \$1330:1 \$1330:6 48.068200
6 \$1330:1 \$1330:7 65.091900
7 \$1330:1 \$1330:8 65.705800
8 \$1330:1 \$1330:9 46.925300
*END

*D_NET \$1331 2.904984
*CAP
1 \$1331:1 2.882978
2 \$1331:1 _104_ 0.014403
3 \$1331:1 clknet_3_7__leaf_clk 0.007603
*RES
1 \$1331:1 \$1331:2 82.156100
2 \$1331:1 \$1331:3 110.065100
3 \$1331:1 \$1331:4 34.925800
4 \$1331:1 \$1331:5 20.494200
5 \$1331:1 \$1331:6 48.068200
6 \$1331:1 \$1331:7 65.091900
7 \$1331:1 \$1331:8 65.705800
8 \$1331:1 \$1331:9 46.925300
*END

*D_NET \$1333 1.075176
*CAP
1 \$1333:1 1.071212
2 \$1333:1 u_sync_detector\/match[0] 0.003964
*RES
1 \$1333:1 \$1333:2 13.242300
2 \$1333:1 \$1333:3 21.267000
3 \$1333:1 \$1333:4 18.132100
4 \$1333:1 \$1333:5 16.491100
5 \$1333:1 \$1333:6 12.683900
*END

*D_NET \$1334 2.899769
*CAP
1 \$1334:1 2.888366
2 \$1334:1 clknet_3_2__leaf_clk 0.003801
3 \$1334:1 int_rst_n 0.003801
4 \$1334:1 u_decoder\/_02_ 0.003801
*RES
1 \$1334:1 \$1334:2 82.156100
2 \$1334:1 \$1334:3 110.065100
3 \$1334:1 \$1334:4 34.925800
4 \$1334:1 \$1334:5 20.494200
5 \$1334:1 \$1334:6 48.068200
6 \$1334:1 \$1334:7 65.091900
7 \$1334:1 \$1334:8 65.705800
8 \$1334:1 \$1334:9 46.925300
*END

*D_NET \$1335 0.832679
*CAP
1 \$1335:1 0.832679
*RES
1 \$1335:1 \$1335:2 16.527400
2 \$1335:1 \$1335:3 15.499600
3 \$1335:1 \$1335:4 10.523900
4 \$1335:1 \$1335:5 10.298700
5 \$1335:1 \$1335:6 13.857700
6 \$1335:1 \$1335:7 17.319100
*END

*D_NET \$1336 1.350758
*CAP
1 \$1336:1 1.335719
2 \$1336:1 _009_ 0.005619
3 \$1336:1 _139_ 0.003801
4 \$1336:1 clknet_3_3__leaf_clk 0.005619
*RES
1 \$1336:1 \$1336:2 19.166400
2 \$1336:1 \$1336:3 18.380300
3 \$1336:1 \$1336:4 30.960700
4 \$1336:1 \$1336:5 31.720400
5 \$1336:1 \$1336:6 37.481600
6 \$1336:1 \$1336:7 37.678600
*END

*D_NET \$1337 0.832679
*CAP
1 \$1337:1 0.832679
*RES
1 \$1337:1 \$1337:2 16.527400
2 \$1337:1 \$1337:3 15.499600
3 \$1337:1 \$1337:4 10.523900
4 \$1337:1 \$1337:5 10.298700
5 \$1337:1 \$1337:6 13.857700
6 \$1337:1 \$1337:7 17.319100
*END

*D_NET \$1338 1.348735
*CAP
1 \$1338:1 1.337810
2 \$1338:1 _044_ 0.003801
3 \$1338:1 clknet_3_3__leaf_clk 0.001505
4 \$1338:1 u_eop_detector\/_08_ 0.005619
*RES
1 \$1338:1 \$1338:2 19.166400
2 \$1338:1 \$1338:3 18.380300
3 \$1338:1 \$1338:4 30.960700
4 \$1338:1 \$1338:5 31.720400
5 \$1338:1 \$1338:6 37.481600
6 \$1338:1 \$1338:7 37.678600
*END

*D_NET \$134 0.317640
*CAP
1 \$134:1 0.306785
2 \$134:1 _018_ 0.003801
3 \$134:1 _100_ 0.007054
*RES
1 \$134:1 \$134:2 0.635800
2 \$134:1 \$134:3 0.671100
3 \$134:1 \$134:4 0.035300
*END

*D_NET \$1340 0.832679
*CAP
1 \$1340:1 0.832679
*RES
1 \$1340:1 \$1340:2 16.527400
2 \$1340:1 \$1340:3 15.499600
3 \$1340:1 \$1340:4 10.523900
4 \$1340:1 \$1340:5 10.298700
5 \$1340:1 \$1340:6 13.857700
6 \$1340:1 \$1340:7 17.319100
*END

*D_NET \$1341 1.344103
*CAP
1 \$1341:1 1.342598
2 \$1341:1 clknet_0_clk 0.001505
*RES
1 \$1341:1 \$1341:2 19.166400
2 \$1341:1 \$1341:3 18.380300
3 \$1341:1 \$1341:4 30.960700
4 \$1341:1 \$1341:5 31.720400
5 \$1341:1 \$1341:6 37.481600
6 \$1341:1 \$1341:7 37.678600
*END

*D_NET \$1343 0.832679
*CAP
1 \$1343:1 0.832679
*RES
1 \$1343:1 \$1343:2 16.527400
2 \$1343:1 \$1343:3 15.499600
3 \$1343:1 \$1343:4 10.523900
4 \$1343:1 \$1343:5 10.298700
5 \$1343:1 \$1343:6 13.857700
6 \$1343:1 \$1343:7 17.319100
*END

*D_NET \$1344 1.343363
*CAP
1 \$1344:1 1.343363
*RES
1 \$1344:1 \$1344:2 19.166400
2 \$1344:1 \$1344:3 18.380300
3 \$1344:1 \$1344:4 30.960700
4 \$1344:1 \$1344:5 31.720400
5 \$1344:1 \$1344:6 37.481600
6 \$1344:1 \$1344:7 37.678600
*END

*D_NET \$1345 0.832679
*CAP
1 \$1345:1 0.832679
*RES
1 \$1345:1 \$1345:2 16.527400
2 \$1345:1 \$1345:3 15.499600
3 \$1345:1 \$1345:4 10.523900
4 \$1345:1 \$1345:5 10.298700
5 \$1345:1 \$1345:6 13.857700
6 \$1345:1 \$1345:7 17.319100
*END

*D_NET \$1346 1.345232
*CAP
1 \$1346:1 1.341431
2 \$1346:1 tx_state[2] 0.003801
*RES
1 \$1346:1 \$1346:2 19.166400
2 \$1346:1 \$1346:3 18.380300
3 \$1346:1 \$1346:4 30.960700
4 \$1346:1 \$1346:5 31.720400
5 \$1346:1 \$1346:6 37.481600
6 \$1346:1 \$1346:7 37.678600
*END

*D_NET \$1348 0.832679
*CAP
1 \$1348:1 0.832679
*RES
1 \$1348:1 \$1348:2 16.527400
2 \$1348:1 \$1348:3 15.499600
3 \$1348:1 \$1348:4 10.523900
4 \$1348:1 \$1348:5 10.298700
5 \$1348:1 \$1348:6 13.857700
6 \$1348:1 \$1348:7 17.319100
*END

*D_NET \$1349 1.343363
*CAP
1 \$1349:1 1.343363
*RES
1 \$1349:1 \$1349:2 19.166400
2 \$1349:1 \$1349:3 18.380300
3 \$1349:1 \$1349:4 30.960700
4 \$1349:1 \$1349:5 31.720400
5 \$1349:1 \$1349:6 37.481600
6 \$1349:1 \$1349:7 37.678600
*END

*D_NET \$135 0.313846
*CAP
1 \$135:1 0.310706
2 \$135:1 _092_ 0.003140
*RES
1 \$135:1 \$135:2 0.635800
2 \$135:1 \$135:3 0.035300
3 \$135:1 \$135:4 0.671100
*END

*D_NET \$1352 2.139431
*CAP
1 \$1352:1 2.121211
2 \$1352:1 int_rst_n 0.000788
3 \$1352:1 u_decoder\/_02_ 0.017432
*RES
1 \$1352:1 \$1352:2 23.606500
2 \$1352:1 \$1352:3 63.310200
3 \$1352:1 \$1352:4 48.046900
4 \$1352:1 \$1352:5 13.008400
5 \$1352:1 \$1352:6 48.146100
6 \$1352:1 \$1352:7 47.329500
*END

*D_NET \$1353 0.844314
*CAP
1 \$1353:1 0.844314
*RES
1 \$1353:1 \$1353:2 27.599400
2 \$1353:1 \$1353:3 23.748600
3 \$1353:1 \$1353:4 22.372100
4 \$1353:1 \$1353:5 12.741300
5 \$1353:1 \$1353:6 22.897300
6 \$1353:1 \$1353:7 13.523900
*END

*D_NET \$1354 0.975414
*CAP
1 \$1354:1 0.971477
2 \$1354:1 _009_ 0.003801
3 \$1354:1 clknet_3_3__leaf_clk 0.000136
*RES
1 \$1354:1 \$1354:2 17.105400
2 \$1354:1 \$1354:3 17.360700
3 \$1354:1 \$1354:4 16.870200
4 \$1354:1 \$1354:5 8.058000
5 \$1354:1 \$1354:6 13.771500
6 \$1354:1 \$1354:7 8.212700
*END

*D_NET \$1355 2.132340
*CAP
1 \$1355:1 2.128539
2 \$1355:1 rx_receiving 0.003801
*RES
1 \$1355:1 \$1355:2 23.606500
2 \$1355:1 \$1355:3 63.310200
3 \$1355:1 \$1355:4 48.046900
4 \$1355:1 \$1355:5 13.008400
5 \$1355:1 \$1355:6 48.146100
6 \$1355:1 \$1355:7 47.329500
*END

*D_NET \$1356 0.847242
*CAP
1 \$1356:1 0.841287
2 \$1356:1 _032_ 0.000336
3 \$1356:1 rx_receiving 0.005619
*RES
1 \$1356:1 \$1356:2 27.599400
2 \$1356:1 \$1356:3 23.748600
3 \$1356:1 \$1356:4 22.372100
4 \$1356:1 \$1356:5 12.741300
5 \$1356:1 \$1356:6 22.897300
6 \$1356:1 \$1356:7 13.523900
*END

*D_NET \$1357 0.977216
*CAP
1 \$1357:1 0.969614
2 \$1357:1 clknet_3_3__leaf_clk 0.003801
3 \$1357:1 u_eop_detector\/_08_ 0.003801
*RES
1 \$1357:1 \$1357:2 17.105400
2 \$1357:1 \$1357:3 17.360700
3 \$1357:1 \$1357:4 16.870200
4 \$1357:1 \$1357:5 8.058000
5 \$1357:1 \$1357:6 13.771500
6 \$1357:1 \$1357:7 8.212700
*END

*D_NET \$136 0.854472
*CAP
1 \$136:1 0.850671
2 \$136:1 _136_ 0.003801
*RES
1 \$136:1 \$136:2 1.394800
2 \$136:1 \$136:3 0.963100
3 \$136:1 \$136:4 0.022500
4 \$136:1 \$136:5 0.486400
5 \$136:1 \$136:6 0.634600
6 \$136:1 \$136:7 0.306000
*END

*D_NET \$1360 2.134859
*CAP
1 \$1360:1 2.125935
2 \$1360:1 _065_ 0.002396
3 \$1360:1 int_rst_n 0.006528
*RES
1 \$1360:1 \$1360:2 23.606500
2 \$1360:1 \$1360:3 63.310200
3 \$1360:1 \$1360:4 48.046900
4 \$1360:1 \$1360:5 13.008400
5 \$1360:1 \$1360:6 48.146100
6 \$1360:1 \$1360:7 47.329500
*END

*D_NET \$1361 0.844314
*CAP
1 \$1361:1 0.844314
*RES
1 \$1361:1 \$1361:2 27.599400
2 \$1361:1 \$1361:3 23.748600
3 \$1361:1 \$1361:4 22.372100
4 \$1361:1 \$1361:5 12.741300
5 \$1361:1 \$1361:6 22.897300
6 \$1361:1 \$1361:7 13.523900
*END

*D_NET \$1362 0.979390
*CAP
1 \$1362:1 0.967367
2 \$1362:1 clknet_0_clk 0.003801
3 \$1362:1 int_rst_n 0.008222
*RES
1 \$1362:1 \$1362:2 17.105400
2 \$1362:1 \$1362:3 17.360700
3 \$1362:1 \$1362:4 16.870200
4 \$1362:1 \$1362:5 8.058000
5 \$1362:1 \$1362:6 13.771500
6 \$1362:1 \$1362:7 8.212700
*END

*D_NET \$1363 2.130471
*CAP
1 \$1363:1 2.130471
*RES
1 \$1363:1 \$1363:2 23.606500
2 \$1363:1 \$1363:3 63.310200
3 \$1363:1 \$1363:4 48.046900
4 \$1363:1 \$1363:5 13.008400
5 \$1363:1 \$1363:6 48.146100
6 \$1363:1 \$1363:7 47.329500
*END

*D_NET \$1364 0.844314
*CAP
1 \$1364:1 0.844314
*RES
1 \$1364:1 \$1364:2 27.599400
2 \$1364:1 \$1364:3 23.748600
3 \$1364:1 \$1364:4 22.372100
4 \$1364:1 \$1364:5 12.741300
5 \$1364:1 \$1364:6 22.897300
6 \$1364:1 \$1364:7 13.523900
*END

*D_NET \$1365 0.973478
*CAP
1 \$1365:1 0.973478
*RES
1 \$1365:1 \$1365:2 17.105400
2 \$1365:1 \$1365:3 17.360700
3 \$1365:1 \$1365:4 16.870200
4 \$1365:1 \$1365:5 8.058000
5 \$1365:1 \$1365:6 13.771500
6 \$1365:1 \$1365:7 8.212700
*END

*D_NET \$1367 2.139289
*CAP
1 \$1367:1 2.121357
2 \$1367:1 _001_ 0.003801
3 \$1367:1 _054_ 0.006528
4 \$1367:1 clknet_3_7__leaf_clk 0.007603
*RES
1 \$1367:1 \$1367:2 23.606500
2 \$1367:1 \$1367:3 63.310200
3 \$1367:1 \$1367:4 48.046900
4 \$1367:1 \$1367:5 13.008400
5 \$1367:1 \$1367:6 48.146100
6 \$1367:1 \$1367:7 47.329500
*END

*D_NET \$1368 0.844534
*CAP
1 \$1368:1 0.844087
2 \$1368:1 _001_ 0.000447
*RES
1 \$1368:1 \$1368:2 27.599400
2 \$1368:1 \$1368:3 23.748600
3 \$1368:1 \$1368:4 22.372100
4 \$1368:1 \$1368:5 12.741300
5 \$1368:1 \$1368:6 22.897300
6 \$1368:1 \$1368:7 13.523900
*END

*D_NET \$1369 0.973478
*CAP
1 \$1369:1 0.973478
*RES
1 \$1369:1 \$1369:2 17.105400
2 \$1369:1 \$1369:3 17.360700
3 \$1369:1 \$1369:4 16.870200
4 \$1369:1 \$1369:5 8.058000
5 \$1369:1 \$1369:6 13.771500
6 \$1369:1 \$1369:7 8.212700
*END

*D_NET \$1371 2.138631
*CAP
1 \$1371:1 2.122037
2 \$1371:1 _021_ 0.003801
3 \$1371:1 clknet_3_7__leaf_clk 0.012793
*RES
1 \$1371:1 \$1371:2 23.606500
2 \$1371:1 \$1371:3 63.310200
3 \$1371:1 \$1371:4 48.046900
4 \$1371:1 \$1371:5 13.008400
5 \$1371:1 \$1371:6 48.146100
6 \$1371:1 \$1371:7 47.329500
*END

*D_NET \$1372 0.844314
*CAP
1 \$1372:1 0.844314
*RES
1 \$1372:1 \$1372:2 27.599400
2 \$1372:1 \$1372:3 23.748600
3 \$1372:1 \$1372:4 22.372100
4 \$1372:1 \$1372:5 12.741300
5 \$1372:1 \$1372:6 22.897300
6 \$1372:1 \$1372:7 13.523900
*END

*D_NET \$1373 0.973478
*CAP
1 \$1373:1 0.973478
*RES
1 \$1373:1 \$1373:2 17.105400
2 \$1373:1 \$1373:3 17.360700
3 \$1373:1 \$1373:4 16.870200
4 \$1373:1 \$1373:5 8.058000
5 \$1373:1 \$1373:6 13.771500
6 \$1373:1 \$1373:7 8.212700
*END

*D_NET \$1397 0.360104
*CAP
1 \$1397:1 0.355329
2 \$1397:1 _109_ 0.004775
*RES
1 \$1397:1 \$1397:2 0.774800
2 \$1397:1 \$1397:3 0.774800
3 \$1397:1 \$1397:4 0.001000
*END

*D_NET \$140 2.905995
*CAP
1 \$140:1 2.881931
2 \$140:1 _050_ 0.003801
3 \$140:1 _078_ 0.008860
4 \$140:1 _140_ 0.003801
5 \$140:1 _141_ 0.003801
6 \$140:1 clknet_3_5__leaf_clk 0.003801
*RES
1 \$140:1 \$140:2 82.156100
2 \$140:1 \$140:3 110.065100
3 \$140:1 \$140:4 34.925800
4 \$140:1 \$140:5 20.494200
5 \$140:1 \$140:6 48.068200
6 \$140:1 \$140:7 65.091900
7 \$140:1 \$140:8 65.705800
8 \$140:1 \$140:9 46.925300
*END

*D_NET \$141 1.133852
*CAP
1 \$141:1 1.127421
2 \$141:1 DataIn[7] 0.002630
3 \$141:1 _114_ 0.003801
*RES
1 \$141:1 \$141:2 15.959000
2 \$141:1 \$141:3 17.797300
3 \$141:1 \$141:4 14.705300
4 \$141:1 \$141:5 10.608600
5 \$141:1 \$141:6 13.807700
6 \$141:1 \$141:7 9.230600
*END

*D_NET \$142 1.215638
*CAP
1 \$142:1 1.211837
2 \$142:1 destuff_out_bit 0.003801
*RES
1 \$142:1 \$142:2 31.800600
2 \$142:1 \$142:3 25.661100
3 \$142:1 \$142:4 22.143400
4 \$142:1 \$142:5 27.185500
*END

*D_NET \$1425 1.121919
*CAP
1 \$1425:1 1.118118
2 \$1425:1 u_destuffer\/_13_ 0.003801
*RES
1 \$1425:1 \$1425:2 15.008600
2 \$1425:1 \$1425:3 20.605000
3 \$1425:1 \$1425:4 18.928400
4 \$1425:1 \$1425:5 11.580900
5 \$1425:1 \$1425:6 15.930500
*END

*D_NET \$1426 0.343999
*CAP
1 \$1426:1 0.342326
2 \$1426:1 u_destuffer\/ones[1] 0.001673
*RES
1 \$1426:1 \$1426:2 0.741500
2 \$1426:1 \$1426:3 0.741500
3 \$1426:1 \$1426:4 0.001000
*END

*D_NET \$1427 1.556336
*CAP
1 \$1427:1 1.548624
2 \$1427:1 u_destuffer\/ones[1] 0.007712
*RES
1 \$1427:1 \$1427:2 24.206200
2 \$1427:1 \$1427:3 24.607900
3 \$1427:1 \$1427:4 16.699600
4 \$1427:1 \$1427:5 16.983400
5 \$1427:1 \$1427:6 29.217800
6 \$1427:1 \$1427:7 20.146800
7 \$1427:1 \$1427:8 13.968000
8 \$1427:1 \$1427:9 20.488900
*END

*D_NET \$143 1.130690
*CAP
1 \$143:1 1.130690
*RES
1 \$143:1 \$143:2 17.797300
2 \$143:1 \$143:3 15.959000
3 \$143:1 \$143:4 10.608600
4 \$143:1 \$143:5 14.705300
5 \$143:1 \$143:6 9.230600
6 \$143:1 \$143:7 13.807700
*END

*D_NET \$1431 2.909341
*CAP
1 \$1431:1 2.878475
2 \$1431:1 _009_ 0.014403
3 \$1431:1 _139_ 0.008860
4 \$1431:1 clknet_3_3__leaf_clk 0.007603
*RES
1 \$1431:1 \$1431:2 82.156100
2 \$1431:1 \$1431:3 110.065100
3 \$1431:1 \$1431:4 34.925800
4 \$1431:1 \$1431:5 20.494200
5 \$1431:1 \$1431:6 48.068200
6 \$1431:1 \$1431:7 65.091900
7 \$1431:1 \$1431:8 65.705800
8 \$1431:1 \$1431:9 46.925300
*END

*D_NET \$1432 2.132340
*CAP
1 \$1432:1 2.128539
2 \$1432:1 _049_ 0.003801
*RES
1 \$1432:1 \$1432:2 63.310200
2 \$1432:1 \$1432:3 48.046900
3 \$1432:1 \$1432:4 13.008400
4 \$1432:1 \$1432:5 23.606500
5 \$1432:1 \$1432:6 48.146100
6 \$1432:1 \$1432:7 47.329500
*END

*D_NET \$1433 0.844534
*CAP
1 \$1433:1 0.844087
2 \$1433:1 _049_ 0.000447
*RES
1 \$1433:1 \$1433:2 23.748600
2 \$1433:1 \$1433:3 27.599400
3 \$1433:1 \$1433:4 22.372100
4 \$1433:1 \$1433:5 12.741300
5 \$1433:1 \$1433:6 22.897300
6 \$1433:1 \$1433:7 13.523900
*END

*D_NET \$1434 0.832679
*CAP
1 \$1434:1 0.832679
*RES
1 \$1434:1 \$1434:2 15.499600
2 \$1434:1 \$1434:3 16.527400
3 \$1434:1 \$1434:4 10.298700
4 \$1434:1 \$1434:5 13.857700
5 \$1434:1 \$1434:6 10.523900
6 \$1434:1 \$1434:7 17.319100
*END

*D_NET \$1435 0.973478
*CAP
1 \$1435:1 0.973478
*RES
1 \$1435:1 \$1435:2 17.360700
2 \$1435:1 \$1435:3 17.105400
3 \$1435:1 \$1435:4 16.870200
4 \$1435:1 \$1435:5 8.058000
5 \$1435:1 \$1435:6 13.771500
6 \$1435:1 \$1435:7 8.212700
*END

*D_NET \$1436 1.345232
*CAP
1 \$1436:1 1.341431
2 \$1436:1 rx_receiving 0.003801
*RES
1 \$1436:1 \$1436:2 37.481600
2 \$1436:1 \$1436:3 18.380300
3 \$1436:1 \$1436:4 19.166400
4 \$1436:1 \$1436:5 30.960700
5 \$1436:1 \$1436:6 31.720400
6 \$1436:1 \$1436:7 37.678600
*END

*D_NET \$1437 0.359625
*CAP
1 \$1437:1 0.355824
2 \$1437:1 enc_line_valid 0.003801
*RES
1 \$1437:1 \$1437:2 0.768000
2 \$1437:1 \$1437:3 0.006800
3 \$1437:1 \$1437:4 0.774800
*END

*D_NET \$1439 2.519772
*CAP
1 \$1439:1 2.501613
2 \$1439:1 clknet_0_clk 0.014358
3 \$1439:1 clknet_3_6__leaf_clk 0.003801
*RES
1 \$1439:1 \$1439:2 36.428000
2 \$1439:1 \$1439:3 36.954100
3 \$1439:1 \$1439:4 25.810100
4 \$1439:1 \$1439:5 17.679900
5 \$1439:1 \$1439:6 17.460200
6 \$1439:1 \$1439:7 25.357500
7 \$1439:1 \$1439:8 17.460200
8 \$1439:1 \$1439:9 17.679900
9 \$1439:1 \$1439:10 36.428000
10 \$1439:1 \$1439:11 25.357500
11 \$1439:1 \$1439:12 25.810100
12 \$1439:1 \$1439:13 36.954100
*END

*D_NET \$1440 3.226782
*CAP
1 \$1440:1 3.211831
2 \$1440:1 enc_line_bit 0.003801
3 \$1440:1 u_encoder\/_05_ 0.011150
*RES
1 \$1440:1 \$1440:2 9.760800
2 \$1440:1 \$1440:3 13.641100
3 \$1440:1 \$1440:4 29.193900
4 \$1440:1 \$1440:5 22.408800
5 \$1440:1 \$1440:6 15.805700
6 \$1440:1 \$1440:7 30.340800
7 \$1440:1 \$1440:8 18.325200
8 \$1440:1 \$1440:9 24.251800
9 \$1440:1 \$1440:10 10.315200
10 \$1440:1 \$1440:11 7.046200
11 \$1440:1 \$1440:12 22.655800
12 \$1440:1 \$1440:13 29.383900
13 \$1440:1 \$1440:14 36.212300
14 \$1440:1 \$1440:15 16.153900
15 \$1440:1 \$1440:16 24.251800
16 \$1440:1 \$1440:17 18.325200
*END

*D_NET \$1444 0.357756
*CAP
1 \$1444:1 0.357756
*RES
1 \$1444:1 \$1444:2 0.774800
2 \$1444:1 \$1444:3 0.774800
3 \$1444:1 \$1444:4 0.001000
*END

*D_NET \$1446 1.404758
*CAP
1 \$1446:1 1.380132
2 \$1446:1 _104_ 0.009421
3 \$1446:1 _109_ 0.003801
4 \$1446:1 int_rst_n 0.003801
5 \$1446:1 stuffer_in_bit 0.007603
*RES
1 \$1446:1 \$1446:2 13.074400
2 \$1446:1 \$1446:3 14.337600
3 \$1446:1 \$1446:4 20.054900
4 \$1446:1 \$1446:5 17.436700
5 \$1446:1 \$1446:6 9.326200
6 \$1446:1 \$1446:7 8.577400
*END

*D_NET \$145 1.215638
*CAP
1 \$145:1 1.211837
2 \$145:1 rx_shift[7] 0.003801
*RES
1 \$145:1 \$145:2 27.185500
2 \$145:1 \$145:3 22.143400
3 \$145:1 \$145:4 25.661100
4 \$145:1 \$145:5 31.800600
*END

*D_NET \$146 1.132559
*CAP
1 \$146:1 1.128758
2 \$146:1 DataIn[5] 0.003801
*RES
1 \$146:1 \$146:2 17.797300
2 \$146:1 \$146:3 15.959000
3 \$146:1 \$146:4 10.608600
4 \$146:1 \$146:5 14.705300
5 \$146:1 \$146:6 9.230600
6 \$146:1 \$146:7 13.807700
*END

*D_NET \$1462 0.320435
*CAP
1 \$1462:1 0.303896
2 \$1462:1 dec_data_valid 0.003801
3 \$1462:1 u_sync_detector\/_06_ 0.006883
4 \$1462:1 u_sync_detector\/_13_ 0.005855
*RES
1 \$1462:1 \$1462:2 0.650500
2 \$1462:1 \$1462:3 0.020600
3 \$1462:1 \$1462:4 0.671100
*END

*D_NET \$147 1.215638
*CAP
1 \$147:1 1.211837
2 \$147:1 rx_shift[6] 0.003801
*RES
1 \$147:1 \$147:2 27.185500
2 \$147:1 \$147:3 22.143400
3 \$147:1 \$147:4 25.661100
4 \$147:1 \$147:5 31.800600
*END

*D_NET \$148 1.130690
*CAP
1 \$148:1 1.130690
*RES
1 \$148:1 \$148:2 17.797300
2 \$148:1 \$148:3 15.959000
3 \$148:1 \$148:4 10.608600
4 \$148:1 \$148:5 14.705300
5 \$148:1 \$148:6 9.230600
6 \$148:1 \$148:7 13.807700
*END

*D_NET \$1480 2.110420
*CAP
1 \$1480:1 2.097972
2 \$1480:1 clknet_3_2__leaf_clk 0.003801
3 \$1480:1 sync_next 0.004846
4 \$1480:1 u_sync_detector\/_07_ 0.003801
*RES
1 \$1480:1 \$1480:2 2.323100
2 \$1480:1 \$1480:3 2.264200
3 \$1480:1 \$1480:4 1.087900
4 \$1480:1 \$1480:5 1.407100
5 \$1480:1 \$1480:6 1.058400
6 \$1480:1 \$1480:7 1.377700
*END

*D_NET \$1482 1.517244
*CAP
1 \$1482:1 1.506915
2 \$1482:1 int_rst_n 0.003801
3 \$1482:1 sync_next 0.006528
*RES
1 \$1482:1 \$1482:2 16.804100
2 \$1482:1 \$1482:3 25.018700
3 \$1482:1 \$1482:4 27.230800
4 \$1482:1 \$1482:5 20.165300
5 \$1482:1 \$1482:6 28.507200
6 \$1482:1 \$1482:7 25.582100
7 \$1482:1 \$1482:8 16.473800
*END

*D_NET \$1486 2.897900
*CAP
1 \$1486:1 2.890298
2 \$1486:1 clknet_0_clk 0.003801
3 \$1486:1 clknet_3_6__leaf_clk 0.003801
*RES
1 \$1486:1 \$1486:2 82.156100
2 \$1486:1 \$1486:3 110.065100
3 \$1486:1 \$1486:4 34.925800
4 \$1486:1 \$1486:5 20.494200
5 \$1486:1 \$1486:6 48.068200
6 \$1486:1 \$1486:7 65.091900
7 \$1486:1 \$1486:8 65.705800
8 \$1486:1 \$1486:9 46.925300
*END

*D_NET \$1487 2.144103
*CAP
1 \$1487:1 2.116382
2 \$1487:1 _120_ 0.004678
3 \$1487:1 clknet_0_clk 0.006186
4 \$1487:1 clknet_3_6__leaf_clk 0.006528
5 \$1487:1 enc_line_valid 0.006528
6 \$1487:1 u_encoder\/_01_ 0.003801
*RES
1 \$1487:1 \$1487:2 23.606500
2 \$1487:1 \$1487:3 63.310200
3 \$1487:1 \$1487:4 48.046900
4 \$1487:1 \$1487:5 13.008400
5 \$1487:1 \$1487:6 48.146100
6 \$1487:1 \$1487:7 47.329500
*END

*D_NET \$1489 0.849126
*CAP
1 \$1489:1 0.839341
2 \$1489:1 clknet_0_clk 0.009785
*RES
1 \$1489:1 \$1489:2 27.599400
2 \$1489:1 \$1489:3 23.748600
3 \$1489:1 \$1489:4 22.372100
4 \$1489:1 \$1489:5 12.741300
5 \$1489:1 \$1489:6 22.897300
6 \$1489:1 \$1489:7 13.523900
*END

*D_NET \$149 1.215638
*CAP
1 \$149:1 1.211837
2 \$149:1 rx_shift[5] 0.003801
*RES
1 \$149:1 \$149:2 27.185500
2 \$149:1 \$149:3 22.143400
3 \$149:1 \$149:4 25.661100
4 \$149:1 \$149:5 31.800600
*END

*D_NET \$1490 0.833024
*CAP
1 \$1490:1 0.832322
2 \$1490:1 _120_ 0.000702
*RES
1 \$1490:1 \$1490:2 16.527400
2 \$1490:1 \$1490:3 15.499600
3 \$1490:1 \$1490:4 10.523900
4 \$1490:1 \$1490:5 10.298700
5 \$1490:1 \$1490:6 13.857700
6 \$1490:1 \$1490:7 17.319100
*END

*D_NET \$1491 0.977521
*CAP
1 \$1491:1 0.969299
2 \$1491:1 clknet_3_6__leaf_clk 0.008222
*RES
1 \$1491:1 \$1491:2 17.105400
2 \$1491:1 \$1491:3 17.360700
3 \$1491:1 \$1491:4 16.870200
4 \$1491:1 \$1491:5 8.058000
5 \$1491:1 \$1491:6 13.771500
6 \$1491:1 \$1491:7 8.212700
*END

*D_NET \$1492 1.343363
*CAP
1 \$1492:1 1.343363
*RES
1 \$1492:1 \$1492:2 19.166400
2 \$1492:1 \$1492:3 18.380300
3 \$1492:1 \$1492:4 30.960700
4 \$1492:1 \$1492:5 31.720400
5 \$1492:1 \$1492:6 37.481600
6 \$1492:1 \$1492:7 37.678600
*END

*D_NET \$1495 2.897900
*CAP
1 \$1495:1 2.890298
2 \$1495:1 int_rst_n 0.003801
3 \$1495:1 stuffer_in_bit 0.003801
*RES
1 \$1495:1 \$1495:2 82.156100
2 \$1495:1 \$1495:3 110.065100
3 \$1495:1 \$1495:4 34.925800
4 \$1495:1 \$1495:5 20.494200
5 \$1495:1 \$1495:6 48.068200
6 \$1495:1 \$1495:7 65.091900
7 \$1495:1 \$1495:8 65.705800
8 \$1495:1 \$1495:9 46.925300
*END

*D_NET \$1496 2.149834
*CAP
1 \$1496:1 2.110459
2 \$1496:1 clknet_3_7__leaf_clk 0.003801
3 \$1496:1 int_rst_n 0.007603
4 \$1496:1 stuffer_in_bit 0.027971
*RES
1 \$1496:1 \$1496:2 23.606500
2 \$1496:1 \$1496:3 63.310200
3 \$1496:1 \$1496:4 48.046900
4 \$1496:1 \$1496:5 13.008400
5 \$1496:1 \$1496:6 48.146100
6 \$1496:1 \$1496:7 47.329500
*END

*D_NET \$1498 0.844314
*CAP
1 \$1498:1 0.844314
*RES
1 \$1498:1 \$1498:2 27.599400
2 \$1498:1 \$1498:3 23.748600
3 \$1498:1 \$1498:4 22.372100
4 \$1498:1 \$1498:5 12.741300
5 \$1498:1 \$1498:6 22.897300
6 \$1498:1 \$1498:7 13.523900
*END

*D_NET \$1499 0.846932
*CAP
1 \$1499:1 0.817947
2 \$1499:1 clknet_3_7__leaf_clk 0.028985
*RES
1 \$1499:1 \$1499:2 16.527400
2 \$1499:1 \$1499:3 15.499600
3 \$1499:1 \$1499:4 10.523900
4 \$1499:1 \$1499:5 10.298700
5 \$1499:1 \$1499:6 13.857700
6 \$1499:1 \$1499:7 17.319100
*END

*D_NET \$150 2.148795
*CAP
1 \$150:1 2.111532
2 \$150:1 Reset 0.004862
3 \$150:1 _028_ 0.015183
4 \$150:1 _114_ 0.003801
5 \$150:1 line_state[0] 0.008739
6 \$150:1 txdp 0.004678
*RES
1 \$150:1 \$150:2 23.606500
2 \$150:1 \$150:3 63.310200
3 \$150:1 \$150:4 48.046900
4 \$150:1 \$150:5 13.008400
5 \$150:1 \$150:6 48.146100
6 \$150:1 \$150:7 47.329500
*END

*D_NET \$1500 0.973478
*CAP
1 \$1500:1 0.973478
*RES
1 \$1500:1 \$1500:2 17.105400
2 \$1500:1 \$1500:3 17.360700
3 \$1500:1 \$1500:4 16.870200
4 \$1500:1 \$1500:5 8.058000
5 \$1500:1 \$1500:6 13.771500
6 \$1500:1 \$1500:7 8.212700
*END

*D_NET \$1501 1.343830
*CAP
1 \$1501:1 1.342880
2 \$1501:1 u_stuffer\/ones[0] 0.000950
*RES
1 \$1501:1 \$1501:2 19.166400
2 \$1501:1 \$1501:3 18.380300
3 \$1501:1 \$1501:4 30.960700
4 \$1501:1 \$1501:5 31.720400
5 \$1501:1 \$1501:6 37.481600
6 \$1501:1 \$1501:7 37.678600
*END

*D_NET \$152 0.847077
*CAP
1 \$152:1 0.841458
2 \$152:1 Reset 0.005619
*RES
1 \$152:1 \$152:2 27.599400
2 \$152:1 \$152:3 23.748600
3 \$152:1 \$152:4 22.372100
4 \$152:1 \$152:5 12.741300
5 \$152:1 \$152:6 22.897300
6 \$152:1 \$152:7 13.523900
*END

*D_NET \$1522 1.440541
*CAP
1 \$1522:1 1.408296
2 \$1522:1 dec_data_valid 0.007054
3 \$1522:1 u_sync_detector\/_09_ 0.003801
4 \$1522:1 u_sync_detector\/_13_ 0.004303
5 \$1522:1 u_sync_detector\/_15_ 0.003801
6 \$1522:1 u_sync_detector\/match[0] 0.003801
7 \$1522:1 u_sync_detector\/match[1] 0.003801
8 \$1522:1 u_sync_detector\/match[2] 0.005684
*RES
1 \$1522:1 \$1522:2 1.707000
2 \$1522:1 \$1522:3 1.354700
3 \$1522:1 \$1522:4 0.598400
4 \$1522:1 \$1522:5 0.888500
5 \$1522:1 \$1522:6 0.774500
6 \$1522:1 \$1522:7 1.064600
*END

*D_NET \$153 0.833796
*CAP
1 \$153:1 0.831524
2 \$153:1 _114_ 0.001570
3 \$153:1 txdp 0.000702
*RES
1 \$153:1 \$153:2 16.527400
2 \$153:1 \$153:3 15.499600
3 \$153:1 \$153:4 10.298700
4 \$153:1 \$153:5 13.857700
5 \$153:1 \$153:6 17.319100
6 \$153:1 \$153:7 10.523900
*END

*D_NET \$1535 2.897901
*CAP
1 \$1535:1 2.890298
2 \$1535:1 clknet_3_2__leaf_clk 0.007603
*RES
1 \$1535:1 \$1535:2 82.156100
2 \$1535:1 \$1535:3 110.065100
3 \$1535:1 \$1535:4 34.925800
4 \$1535:1 \$1535:5 20.494200
5 \$1535:1 \$1535:6 48.068200
6 \$1535:1 \$1535:7 65.091900
7 \$1535:1 \$1535:8 65.705800
8 \$1535:1 \$1535:9 46.925300
*END

*D_NET \$1536 2.132700
*CAP
1 \$1536:1 2.128168
2 \$1536:1 u_sync_detector\/_03_ 0.004532
*RES
1 \$1536:1 \$1536:2 63.310200
2 \$1536:1 \$1536:3 48.046900
3 \$1536:1 \$1536:4 13.008400
4 \$1536:1 \$1536:5 23.606500
5 \$1536:1 \$1536:6 48.146100
6 \$1536:1 \$1536:7 47.329500
*END

*D_NET \$1537 0.846183
*CAP
1 \$1537:1 0.842382
2 \$1537:1 u_sync_detector\/_03_ 0.003801
*RES
1 \$1537:1 \$1537:2 23.748600
2 \$1537:1 \$1537:3 27.599400
3 \$1537:1 \$1537:4 22.372100
4 \$1537:1 \$1537:5 12.741300
5 \$1537:1 \$1537:6 22.897300
6 \$1537:1 \$1537:7 13.523900
*END

*D_NET \$1538 0.832679
*CAP
1 \$1538:1 0.832679
*RES
1 \$1538:1 \$1538:2 15.499600
2 \$1538:1 \$1538:3 16.527400
3 \$1538:1 \$1538:4 10.298700
4 \$1538:1 \$1538:5 13.857700
5 \$1538:1 \$1538:6 10.523900
6 \$1538:1 \$1538:7 17.319100
*END

*D_NET \$1539 0.973478
*CAP
1 \$1539:1 0.973478
*RES
1 \$1539:1 \$1539:2 17.360700
2 \$1539:1 \$1539:3 17.105400
3 \$1539:1 \$1539:4 16.870200
4 \$1539:1 \$1539:5 8.058000
5 \$1539:1 \$1539:6 13.771500
6 \$1539:1 \$1539:7 8.212700
*END

*D_NET \$154 0.978075
*CAP
1 \$154:1 0.968727
2 \$154:1 DataIn[6] 0.005547
3 \$154:1 DataOut[6] 0.003801
*RES
1 \$154:1 \$154:2 17.360700
2 \$154:1 \$154:3 17.105400
3 \$154:1 \$154:4 16.870200
4 \$154:1 \$154:5 8.058000
5 \$154:1 \$154:6 13.771500
6 \$154:1 \$154:7 8.212700
*END

*D_NET \$1540 1.343363
*CAP
1 \$1540:1 1.343363
*RES
1 \$1540:1 \$1540:2 37.481600
2 \$1540:1 \$1540:3 18.380300
3 \$1540:1 \$1540:4 19.166400
4 \$1540:1 \$1540:5 30.960700
5 \$1540:1 \$1540:6 31.720400
6 \$1540:1 \$1540:7 37.678600
*END

*D_NET \$1543 2.902169
*CAP
1 \$1543:1 2.885887
2 \$1543:1 _009_ 0.003801
3 \$1543:1 _138_ 0.003801
4 \$1543:1 clknet_3_3__leaf_clk 0.003801
5 \$1543:1 u_eop_detector\/_00_ 0.004879
*RES
1 \$1543:1 \$1543:2 82.156100
2 \$1543:1 \$1543:3 110.065100
3 \$1543:1 \$1543:4 34.925800
4 \$1543:1 \$1543:5 20.494200
5 \$1543:1 \$1543:6 48.068200
6 \$1543:1 \$1543:7 65.091900
7 \$1543:1 \$1543:8 65.705800
8 \$1543:1 \$1543:9 46.925300
*END

*D_NET \$1544 2.144226
*CAP
1 \$1544:1 2.116255
2 \$1544:1 _009_ 0.027971
*RES
1 \$1544:1 \$1544:2 63.310200
2 \$1544:1 \$1544:3 48.046900
3 \$1544:1 \$1544:4 13.008400
4 \$1544:1 \$1544:5 23.606500
5 \$1544:1 \$1544:6 48.146100
6 \$1544:1 \$1544:7 47.329500
*END

*D_NET \$1545 0.850674
*CAP
1 \$1545:1 0.837741
2 \$1545:1 clknet_0_clk 0.003512
3 \$1545:1 u_eop_detector\/_00_ 0.009421
*RES
1 \$1545:1 \$1545:2 23.748600
2 \$1545:1 \$1545:3 27.599400
3 \$1545:1 \$1545:4 22.372100
4 \$1545:1 \$1545:5 12.741300
5 \$1545:1 \$1545:6 22.897300
6 \$1545:1 \$1545:7 13.523900
*END

*D_NET \$1546 0.835442
*CAP
1 \$1546:1 0.829823
2 \$1546:1 clknet_0_clk 0.005619
*RES
1 \$1546:1 \$1546:2 15.499600
2 \$1546:1 \$1546:3 16.527400
3 \$1546:1 \$1546:4 10.298700
4 \$1546:1 \$1546:5 13.857700
5 \$1546:1 \$1546:6 10.523900
6 \$1546:1 \$1546:7 17.319100
*END

*D_NET \$1547 0.973478
*CAP
1 \$1547:1 0.973478
*RES
1 \$1547:1 \$1547:2 17.360700
2 \$1547:1 \$1547:3 17.105400
3 \$1547:1 \$1547:4 16.870200
4 \$1547:1 \$1547:5 8.058000
5 \$1547:1 \$1547:6 13.771500
6 \$1547:1 \$1547:7 8.212700
*END

*D_NET \$1548 1.343444
*CAP
1 \$1548:1 1.343279
2 \$1548:1 clknet_3_3__leaf_clk 0.000165
*RES
1 \$1548:1 \$1548:2 37.481600
2 \$1548:1 \$1548:3 18.380300
3 \$1548:1 \$1548:4 19.166400
4 \$1548:1 \$1548:5 30.960700
5 \$1548:1 \$1548:6 31.720400
6 \$1548:1 \$1548:7 37.678600
*END

*D_NET \$155 1.347995
*CAP
1 \$155:1 1.338575
2 \$155:1 DataIn[1] 0.003801
3 \$155:1 DataOut[6] 0.005619
*RES
1 \$155:1 \$155:2 31.720400
2 \$155:1 \$155:3 30.960700
3 \$155:1 \$155:4 18.380300
4 \$155:1 \$155:5 19.166400
5 \$155:1 \$155:6 37.481600
6 \$155:1 \$155:7 37.678600
*END

*D_NET \$1550 2.899769
*CAP
1 \$1550:1 2.888366
2 \$1550:1 _000_ 0.003801
3 \$1550:1 clknet_3_3__leaf_clk 0.003801
4 \$1550:1 u_eop_detector\/_08_ 0.003801
*RES
1 \$1550:1 \$1550:2 82.156100
2 \$1550:1 \$1550:3 110.065100
3 \$1550:1 \$1550:4 34.925800
4 \$1550:1 \$1550:5 20.494200
5 \$1550:1 \$1550:6 48.068200
6 \$1550:1 \$1550:7 65.091900
7 \$1550:1 \$1550:8 65.705800
8 \$1550:1 \$1550:9 46.925300
*END

*D_NET \$1551 2.130471
*CAP
1 \$1551:1 2.130471
*RES
1 \$1551:1 \$1551:2 63.310200
2 \$1551:1 \$1551:3 48.046900
3 \$1551:1 \$1551:4 13.008400
4 \$1551:1 \$1551:5 23.606500
5 \$1551:1 \$1551:6 48.146100
6 \$1551:1 \$1551:7 47.329500
*END

*D_NET \$1552 0.845043
*CAP
1 \$1552:1 0.843560
2 \$1552:1 _000_ 0.001483
*RES
1 \$1552:1 \$1552:2 23.748600
2 \$1552:1 \$1552:3 27.599400
3 \$1552:1 \$1552:4 22.372100
4 \$1552:1 \$1552:5 12.741300
5 \$1552:1 \$1552:6 22.897300
6 \$1552:1 \$1552:7 13.523900
*END

*D_NET \$1553 0.832679
*CAP
1 \$1553:1 0.832679
*RES
1 \$1553:1 \$1553:2 15.499600
2 \$1553:1 \$1553:3 16.527400
3 \$1553:1 \$1553:4 10.298700
4 \$1553:1 \$1553:5 13.857700
5 \$1553:1 \$1553:6 10.523900
6 \$1553:1 \$1553:7 17.319100
*END

*D_NET \$1554 0.973478
*CAP
1 \$1554:1 0.973478
*RES
1 \$1554:1 \$1554:2 17.360700
2 \$1554:1 \$1554:3 17.105400
3 \$1554:1 \$1554:4 16.870200
4 \$1554:1 \$1554:5 8.058000
5 \$1554:1 \$1554:6 13.771500
6 \$1554:1 \$1554:7 8.212700
*END

*D_NET \$1555 1.345232
*CAP
1 \$1555:1 1.341431
2 \$1555:1 _118_ 0.003801
*RES
1 \$1555:1 \$1555:2 37.481600
2 \$1555:1 \$1555:3 18.380300
3 \$1555:1 \$1555:4 19.166400
4 \$1555:1 \$1555:5 30.960700
5 \$1555:1 \$1555:6 31.720400
6 \$1555:1 \$1555:7 37.678600
*END

*D_NET \$1556 1.077458
*CAP
1 \$1556:1 1.068852
2 \$1556:1 int_rst_n 0.004642
3 \$1556:1 tx_state[2] 0.003964
*RES
1 \$1556:1 \$1556:2 13.242300
2 \$1556:1 \$1556:3 21.267000
3 \$1556:1 \$1556:4 18.132100
4 \$1556:1 \$1556:5 12.683900
5 \$1556:1 \$1556:6 16.491100
*END

*D_NET \$1577 0.318919
*CAP
1 \$1577:1 0.305462
2 \$1577:1 stuff_in_ready 0.003801
3 \$1577:1 u_stuffer\/_10_ 0.003801
4 \$1577:1 u_stuffer\/ones[0] 0.005855
*RES
1 \$1577:1 \$1577:2 0.650500
2 \$1577:1 \$1577:3 0.020600
3 \$1577:1 \$1577:4 0.671100
*END

*D_NET \$1578 0.316966
*CAP
1 \$1578:1 0.307481
2 \$1578:1 int_rst_n 0.003801
3 \$1578:1 stuffer_in_valid 0.005684
*RES
1 \$1578:1 \$1578:2 0.635800
2 \$1578:1 \$1578:3 0.035300
3 \$1578:1 \$1578:4 0.671100
*END

*D_NET \$1595 2.896031
*CAP
1 \$1595:1 2.892230
2 \$1595:1 clknet_3_2__leaf_clk 0.003801
*RES
1 \$1595:1 \$1595:2 82.156100
2 \$1595:1 \$1595:3 110.065100
3 \$1595:1 \$1595:4 34.925800
4 \$1595:1 \$1595:5 20.494200
5 \$1595:1 \$1595:6 48.068200
6 \$1595:1 \$1595:7 65.091900
7 \$1595:1 \$1595:8 65.705800
8 \$1595:1 \$1595:9 46.925300
*END

*D_NET \$1596 0.832679
*CAP
1 \$1596:1 0.832679
*RES
1 \$1596:1 \$1596:2 16.527400
2 \$1596:1 \$1596:3 15.499600
3 \$1596:1 \$1596:4 10.523900
4 \$1596:1 \$1596:5 10.298700
5 \$1596:1 \$1596:6 13.857700
6 \$1596:1 \$1596:7 17.319100
*END

*D_NET \$1597 0.973478
*CAP
1 \$1597:1 0.973478
*RES
1 \$1597:1 \$1597:2 17.105400
2 \$1597:1 \$1597:3 17.360700
3 \$1597:1 \$1597:4 16.870200
4 \$1597:1 \$1597:5 8.058000
5 \$1597:1 \$1597:6 13.771500
6 \$1597:1 \$1597:7 8.212700
*END

*D_NET \$1598 1.343363
*CAP
1 \$1598:1 1.343363
*RES
1 \$1598:1 \$1598:2 19.166400
2 \$1598:1 \$1598:3 18.380300
3 \$1598:1 \$1598:4 30.960700
4 \$1598:1 \$1598:5 31.720400
5 \$1598:1 \$1598:6 37.481600
6 \$1598:1 \$1598:7 37.678600
*END

*D_NET \$1599 2.512711
*CAP
1 \$1599:1 2.508910
2 \$1599:1 bus_reset 0.003801
*RES
1 \$1599:1 \$1599:2 36.428000
2 \$1599:1 \$1599:3 36.954100
3 \$1599:1 \$1599:4 17.679900
4 \$1599:1 \$1599:5 17.460200
5 \$1599:1 \$1599:6 25.810100
6 \$1599:1 \$1599:7 17.460200
7 \$1599:1 \$1599:8 25.357500
8 \$1599:1 \$1599:9 17.679900
9 \$1599:1 \$1599:10 36.428000
10 \$1599:1 \$1599:11 25.357500
11 \$1599:1 \$1599:12 25.810100
12 \$1599:1 \$1599:13 36.954100
*END

*D_NET \$160 2.136416
*CAP
1 \$160:1 2.124326
2 \$160:1 _054_ 0.003801
3 \$160:1 _140_ 0.007603
4 \$160:1 _141_ 0.000686
*RES
1 \$160:1 \$160:2 23.606500
2 \$160:1 \$160:3 63.310200
3 \$160:1 \$160:4 48.046900
4 \$160:1 \$160:5 13.008400
5 \$160:1 \$160:6 48.146100
6 \$160:1 \$160:7 47.329500
*END

*D_NET \$1601 1.076606
*CAP
1 \$1601:1 1.069733
2 \$1601:1 _000_ 0.004642
3 \$1601:1 tx_state[8] 0.002231
*RES
1 \$1601:1 \$1601:2 13.242300
2 \$1601:1 \$1601:3 21.267000
3 \$1601:1 \$1601:4 18.132100
4 \$1601:1 \$1601:5 16.491100
5 \$1601:1 \$1601:6 12.683900
*END

*D_NET \$1602 2.897901
*CAP
1 \$1602:1 2.890298
2 \$1602:1 clknet_3_6__leaf_clk 0.007603
*RES
1 \$1602:1 \$1602:2 82.156100
2 \$1602:1 \$1602:3 110.065100
3 \$1602:1 \$1602:4 34.925800
4 \$1602:1 \$1602:5 20.494200
5 \$1602:1 \$1602:6 48.068200
6 \$1602:1 \$1602:7 65.091900
7 \$1602:1 \$1602:8 65.705800
8 \$1602:1 \$1602:9 46.925300
*END

*D_NET \$1603 0.835442
*CAP
1 \$1603:1 0.829823
2 \$1603:1 int_rst_n 0.005619
*RES
1 \$1603:1 \$1603:2 16.527400
2 \$1603:1 \$1603:3 15.499600
3 \$1603:1 \$1603:4 10.523900
4 \$1603:1 \$1603:5 10.298700
5 \$1603:1 \$1603:6 13.857700
6 \$1603:1 \$1603:7 17.319100
*END

*D_NET \$1604 0.977344
*CAP
1 \$1604:1 0.969483
2 \$1604:1 _004_ 0.007861
*RES
1 \$1604:1 \$1604:2 17.105400
2 \$1604:1 \$1604:3 17.360700
3 \$1604:1 \$1604:4 16.870200
4 \$1604:1 \$1604:5 8.058000
5 \$1604:1 \$1604:6 13.771500
6 \$1604:1 \$1604:7 8.212700
*END

*D_NET \$1605 1.343830
*CAP
1 \$1605:1 1.342880
2 \$1605:1 tx_state[6] 0.000950
*RES
1 \$1605:1 \$1605:2 19.166400
2 \$1605:1 \$1605:3 18.380300
3 \$1605:1 \$1605:4 30.960700
4 \$1605:1 \$1605:5 31.720400
5 \$1605:1 \$1605:6 37.481600
6 \$1605:1 \$1605:7 37.678600
*END

*D_NET \$1607 2.510842
*CAP
1 \$1607:1 2.510842
*RES
1 \$1607:1 \$1607:2 36.428000
2 \$1607:1 \$1607:3 36.954100
3 \$1607:1 \$1607:4 25.810100
4 \$1607:1 \$1607:5 17.679900
5 \$1607:1 \$1607:6 17.460200
6 \$1607:1 \$1607:7 25.357500
7 \$1607:1 \$1607:8 17.460200
8 \$1607:1 \$1607:9 17.679900
9 \$1607:1 \$1607:10 36.428000
10 \$1607:1 \$1607:11 25.357500
11 \$1607:1 \$1607:12 25.810100
12 \$1607:1 \$1607:13 36.954100
*END

*D_NET \$1608 1.607323
*CAP
1 \$1608:1 1.586516
2 \$1608:1 int_rst_n 0.002479
3 \$1608:1 stuffer_in_valid 0.011150
4 \$1608:1 u_stuffer\/_06_ 0.007178
*RES
1 \$1608:1 \$1608:2 25.138500
2 \$1608:1 \$1608:3 29.406800
3 \$1608:1 \$1608:4 16.171900
4 \$1608:1 \$1608:5 27.961100
5 \$1608:1 \$1608:6 20.891400
6 \$1608:1 \$1608:7 26.784800
7 \$1608:1 \$1608:8 17.030100
*END

*D_NET \$161 0.850569
*CAP
1 \$161:1 0.837848
2 \$161:1 _050_ 0.001483
3 \$161:1 _054_ 0.005619
4 \$161:1 _141_ 0.005619
*RES
1 \$161:1 \$161:2 27.599400
2 \$161:1 \$161:3 23.748600
3 \$161:1 \$161:4 22.372100
4 \$161:1 \$161:5 12.741300
5 \$161:1 \$161:6 22.897300
6 \$161:1 \$161:7 13.523900
*END

*D_NET \$1611 2.130471
*CAP
1 \$1611:1 2.130471
*RES
1 \$1611:1 \$1611:2 23.606500
2 \$1611:1 \$1611:3 63.310200
3 \$1611:1 \$1611:4 48.046900
4 \$1611:1 \$1611:5 13.008400
5 \$1611:1 \$1611:6 48.146100
6 \$1611:1 \$1611:7 47.329500
*END

*D_NET \$1612 0.844534
*CAP
1 \$1612:1 0.844087
2 \$1612:1 u_sync_detector\/_02_ 0.000447
*RES
1 \$1612:1 \$1612:2 27.599400
2 \$1612:1 \$1612:3 23.748600
3 \$1612:1 \$1612:4 22.372100
4 \$1612:1 \$1612:5 12.741300
5 \$1612:1 \$1612:6 22.897300
6 \$1612:1 \$1612:7 13.523900
*END

*D_NET \$1614 2.132340
*CAP
1 \$1614:1 2.128539
2 \$1614:1 int_rst_n 0.003801
*RES
1 \$1614:1 \$1614:2 23.606500
2 \$1614:1 \$1614:3 63.310200
3 \$1614:1 \$1614:4 48.046900
4 \$1614:1 \$1614:5 13.008400
5 \$1614:1 \$1614:6 48.146100
6 \$1614:1 \$1614:7 47.329500
*END

*D_NET \$1615 0.847910
*CAP
1 \$1615:1 0.840597
2 \$1615:1 _004_ 0.003801
3 \$1615:1 int_rst_n 0.003512
*RES
1 \$1615:1 \$1615:2 27.599400
2 \$1615:1 \$1615:3 23.748600
3 \$1615:1 \$1615:4 22.372100
4 \$1615:1 \$1615:5 12.741300
5 \$1615:1 \$1615:6 22.897300
6 \$1615:1 \$1615:7 13.523900
*END

*D_NET \$162 0.834406
*CAP
1 \$162:1 0.830894
2 \$162:1 _054_ 0.003512
*RES
1 \$162:1 \$162:2 16.527400
2 \$162:1 \$162:3 15.499600
3 \$162:1 \$162:4 10.523900
4 \$162:1 \$162:5 10.298700
5 \$162:1 \$162:6 13.857700
6 \$162:1 \$162:7 17.319100
*END

*D_NET \$163 0.973478
*CAP
1 \$163:1 0.973478
*RES
1 \$163:1 \$163:2 17.105400
2 \$163:1 \$163:3 17.360700
3 \$163:1 \$163:4 16.870200
4 \$163:1 \$163:5 8.058000
5 \$163:1 \$163:6 13.771500
6 \$163:1 \$163:7 8.212700
*END

*D_NET \$1638 1.430292
*CAP
1 \$1638:1 1.418889
2 \$1638:1 clknet_3_2__leaf_clk 0.003801
3 \$1638:1 u_sync_detector\/_09_ 0.003801
4 \$1638:1 u_sync_detector\/match[3] 0.003801
*RES
1 \$1638:1 \$1638:2 1.707000
2 \$1638:1 \$1638:3 1.354700
3 \$1638:1 \$1638:4 0.598400
4 \$1638:1 \$1638:5 0.888500
5 \$1638:1 \$1638:6 0.774500
6 \$1638:1 \$1638:7 1.064600
*END

*D_NET \$1639 0.364553
*CAP
1 \$1639:1 0.350731
2 \$1639:1 stuff_out_bit 0.006220
3 \$1639:1 u_encoder\/_05_ 0.003801
4 \$1639:1 u_encoder\/_06_ 0.003801
*RES
1 \$1639:1 \$1639:2 0.774800
2 \$1639:1 \$1639:3 0.774800
3 \$1639:1 \$1639:4 0.001000
*END

*D_NET \$164 1.345232
*CAP
1 \$164:1 1.341431
2 \$164:1 cur_byte[4] 0.003801
*RES
1 \$164:1 \$164:2 19.166400
2 \$164:1 \$164:3 18.380300
3 \$164:1 \$164:4 30.960700
4 \$164:1 \$164:5 31.720400
5 \$164:1 \$164:6 37.481600
6 \$164:1 \$164:7 37.678600
*END

*D_NET \$1640 1.040601
*CAP
1 \$1640:1 1.011759
2 \$1640:1 stuffer_in_bit 0.003801
3 \$1640:1 stuffer_in_valid 0.016302
4 \$1640:1 u_stuffer\/_14_ 0.004938
5 \$1640:1 u_stuffer\/ones[0] 0.003801
*RES
1 \$1640:1 \$1640:2 1.002700
2 \$1640:1 \$1640:3 1.410200
3 \$1640:1 \$1640:4 0.075400
4 \$1640:1 \$1640:5 0.444400
5 \$1640:1 \$1640:6 0.643300
6 \$1640:1 \$1640:7 0.284000
*END

*D_NET \$1660 1.852337
*CAP
1 \$1660:1 1.834322
2 \$1660:1 dec_data_valid 0.003801
3 \$1660:1 u_sync_detector\/_09_ 0.014214
*RES
1 \$1660:1 \$1660:2 13.204000
2 \$1660:1 \$1660:3 23.954400
3 \$1660:1 \$1660:4 21.238700
4 \$1660:1 \$1660:5 25.462200
5 \$1660:1 \$1660:6 18.989400
6 \$1660:1 \$1660:7 26.952600
7 \$1660:1 \$1660:8 15.977400
8 \$1660:1 \$1660:9 11.142000
*END

*D_NET \$1662 2.901245
*CAP
1 \$1662:1 2.886842
2 \$1662:1 clknet_3_3__leaf_clk 0.014403
*RES
1 \$1662:1 \$1662:2 82.156100
2 \$1662:1 \$1662:3 110.065100
3 \$1662:1 \$1662:4 34.925800
4 \$1662:1 \$1662:5 20.494200
5 \$1662:1 \$1662:6 48.068200
6 \$1662:1 \$1662:7 65.091900
7 \$1662:1 \$1662:8 65.705800
8 \$1662:1 \$1662:9 46.925300
*END

*D_NET \$1663 2.142107
*CAP
1 \$1663:1 2.118445
2 \$1663:1 eop_pulse 0.003801
3 \$1663:1 u_eop_detector\/_00_ 0.004678
4 \$1663:1 u_sync_detector\/_04_ 0.015183
*RES
1 \$1663:1 \$1663:2 63.310200
2 \$1663:1 \$1663:3 48.046900
3 \$1663:1 \$1663:4 13.008400
4 \$1663:1 \$1663:5 23.606500
5 \$1663:1 \$1663:6 48.146100
6 \$1663:1 \$1663:7 47.329500
*END

*D_NET \$1664 0.844314
*CAP
1 \$1664:1 0.844314
*RES
1 \$1664:1 \$1664:2 23.748600
2 \$1664:1 \$1664:3 27.599400
3 \$1664:1 \$1664:4 22.372100
4 \$1664:1 \$1664:5 12.741300
5 \$1664:1 \$1664:6 22.897300
6 \$1664:1 \$1664:7 13.523900
*END

*D_NET \$1665 0.847277
*CAP
1 \$1665:1 0.817590
2 \$1665:1 eop_pulse 0.028985
3 \$1665:1 u_eop_detector\/_00_ 0.000702
*RES
1 \$1665:1 \$1665:2 15.499600
2 \$1665:1 \$1665:3 16.527400
3 \$1665:1 \$1665:4 10.298700
4 \$1665:1 \$1665:5 13.857700
5 \$1665:1 \$1665:6 10.523900
6 \$1665:1 \$1665:7 17.319100
*END

*D_NET \$1666 0.973478
*CAP
1 \$1666:1 0.973478
*RES
1 \$1666:1 \$1666:2 17.360700
2 \$1666:1 \$1666:3 17.105400
3 \$1666:1 \$1666:4 16.870200
4 \$1666:1 \$1666:5 8.058000
5 \$1666:1 \$1666:6 13.771500
6 \$1666:1 \$1666:7 8.212700
*END

*D_NET \$1667 1.345232
*CAP
1 \$1667:1 1.341431
2 \$1667:1 bus_reset 0.003801
*RES
1 \$1667:1 \$1667:2 37.481600
2 \$1667:1 \$1667:3 18.380300
3 \$1667:1 \$1667:4 19.166400
4 \$1667:1 \$1667:5 30.960700
5 \$1667:1 \$1667:6 31.720400
6 \$1667:1 \$1667:7 37.678600
*END

*D_NET \$1669 2.897901
*CAP
1 \$1669:1 2.890298
2 \$1669:1 clknet_3_3__leaf_clk 0.007603
*RES
1 \$1669:1 \$1669:2 82.156100
2 \$1669:1 \$1669:3 110.065100
3 \$1669:1 \$1669:4 34.925800
4 \$1669:1 \$1669:5 20.494200
5 \$1669:1 \$1669:6 48.068200
6 \$1669:1 \$1669:7 65.091900
7 \$1669:1 \$1669:8 65.705800
8 \$1669:1 \$1669:9 46.925300
*END

*D_NET \$1670 2.134209
*CAP
1 \$1670:1 2.126607
2 \$1670:1 int_rst_n 0.003801
3 \$1670:1 u_eop_detector\/_09_ 0.003801
*RES
1 \$1670:1 \$1670:2 63.310200
2 \$1670:1 \$1670:3 48.046900
3 \$1670:1 \$1670:4 13.008400
4 \$1670:1 \$1670:5 23.606500
5 \$1670:1 \$1670:6 48.146100
6 \$1670:1 \$1670:7 47.329500
*END

*D_NET \$1672 0.850005
*CAP
1 \$1672:1 0.838431
2 \$1672:1 _006_ 0.000336
3 \$1672:1 int_rst_n 0.005619
4 \$1672:1 u_eop_detector\/_09_ 0.005619
*RES
1 \$1672:1 \$1672:2 23.748600
2 \$1672:1 \$1672:3 27.599400
3 \$1672:1 \$1672:4 22.372100
4 \$1672:1 \$1672:5 12.741300
5 \$1672:1 \$1672:6 22.897300
6 \$1672:1 \$1672:7 13.523900
*END

*D_NET \$1673 0.850000
*CAP
1 \$1673:1 0.814776
2 \$1673:1 _006_ 0.026093
3 \$1673:1 int_rst_n 0.005619
4 \$1673:1 u_eop_detector\/_09_ 0.003512
*RES
1 \$1673:1 \$1673:2 15.499600
2 \$1673:1 \$1673:3 16.527400
3 \$1673:1 \$1673:4 10.298700
4 \$1673:1 \$1673:5 13.857700
5 \$1673:1 \$1673:6 10.523900
6 \$1673:1 \$1673:7 17.319100
*END

*D_NET \$1674 0.973478
*CAP
1 \$1674:1 0.973478
*RES
1 \$1674:1 \$1674:2 17.360700
2 \$1674:1 \$1674:3 17.105400
3 \$1674:1 \$1674:4 16.870200
4 \$1674:1 \$1674:5 8.058000
5 \$1674:1 \$1674:6 13.771500
6 \$1674:1 \$1674:7 8.212700
*END

*D_NET \$1675 1.345232
*CAP
1 \$1675:1 1.341431
2 \$1675:1 tx_state[4] 0.003801
*RES
1 \$1675:1 \$1675:2 37.481600
2 \$1675:1 \$1675:3 18.380300
3 \$1675:1 \$1675:4 19.166400
4 \$1675:1 \$1675:5 30.960700
5 \$1675:1 \$1675:6 31.720400
6 \$1675:1 \$1675:7 37.678600
*END

*D_NET \$1676 2.898431
*CAP
1 \$1676:1 2.889751
2 \$1676:1 _002_ 0.003801
3 \$1676:1 int_rst_n 0.004879
*RES
1 \$1676:1 \$1676:2 82.156100
2 \$1676:1 \$1676:3 110.065100
3 \$1676:1 \$1676:4 34.925800
4 \$1676:1 \$1676:5 20.494200
5 \$1676:1 \$1676:6 48.068200
6 \$1676:1 \$1676:7 65.091900
7 \$1676:1 \$1676:8 65.705800
8 \$1676:1 \$1676:9 46.925300
*END

*D_NET \$1677 2.132340
*CAP
1 \$1677:1 2.128539
2 \$1677:1 int_rst_n 0.003801
*RES
1 \$1677:1 \$1677:2 63.310200
2 \$1677:1 \$1677:3 48.046900
3 \$1677:1 \$1677:4 13.008400
4 \$1677:1 \$1677:5 23.606500
5 \$1677:1 \$1677:6 48.146100
6 \$1677:1 \$1677:7 47.329500
*END

*D_NET \$1679 0.847806
*CAP
1 \$1679:1 0.840704
2 \$1679:1 _002_ 0.001483
3 \$1679:1 int_rst_n 0.005619
*RES
1 \$1679:1 \$1679:2 23.748600
2 \$1679:1 \$1679:3 27.599400
3 \$1679:1 \$1679:4 22.372100
4 \$1679:1 \$1679:5 12.741300
5 \$1679:1 \$1679:6 22.897300
6 \$1679:1 \$1679:7 13.523900
*END

*D_NET \$1680 0.832679
*CAP
1 \$1680:1 0.832679
*RES
1 \$1680:1 \$1680:2 15.499600
2 \$1680:1 \$1680:3 16.527400
3 \$1680:1 \$1680:4 10.298700
4 \$1680:1 \$1680:5 13.857700
5 \$1680:1 \$1680:6 10.523900
6 \$1680:1 \$1680:7 17.319100
*END

*D_NET \$1681 0.973545
*CAP
1 \$1681:1 0.973409
2 \$1681:1 tx_state[6] 0.000136
*RES
1 \$1681:1 \$1681:2 17.360700
2 \$1681:1 \$1681:3 17.105400
3 \$1681:1 \$1681:4 16.870200
4 \$1681:1 \$1681:5 8.058000
5 \$1681:1 \$1681:6 13.771500
6 \$1681:1 \$1681:7 8.212700
*END

*D_NET \$1682 1.346126
*CAP
1 \$1682:1 1.340507
2 \$1682:1 tx_state[6] 0.005619
*RES
1 \$1682:1 \$1682:2 37.481600
2 \$1682:1 \$1682:3 18.380300
3 \$1682:1 \$1682:4 19.166400
4 \$1682:1 \$1682:5 30.960700
5 \$1682:1 \$1682:6 31.720400
6 \$1682:1 \$1682:7 37.678600
*END

*D_NET \$1683 2.898519
*CAP
1 \$1683:1 2.889659
2 \$1683:1 clknet_3_6__leaf_clk 0.008860
*RES
1 \$1683:1 \$1683:2 82.156100
2 \$1683:1 \$1683:3 110.065100
3 \$1683:1 \$1683:4 34.925800
4 \$1683:1 \$1683:5 20.494200
5 \$1683:1 \$1683:6 48.068200
6 \$1683:1 \$1683:7 65.091900
7 \$1683:1 \$1683:8 65.705800
8 \$1683:1 \$1683:9 46.925300
*END

*D_NET \$1684 2.151694
*CAP
1 \$1684:1 2.108536
2 \$1684:1 stuff_out_bit 0.004678
3 \$1684:1 u_encoder\/_04_ 0.003801
4 \$1684:1 u_encoder\/_05_ 0.028151
5 \$1684:1 u_encoder\/_06_ 0.006528
*RES
1 \$1684:1 \$1684:2 63.310200
2 \$1684:1 \$1684:3 48.046900
3 \$1684:1 \$1684:4 13.008400
4 \$1684:1 \$1684:5 23.606500
5 \$1684:1 \$1684:6 48.146100
6 \$1684:1 \$1684:7 47.329500
*END

*D_NET \$1686 0.848947
*CAP
1 \$1686:1 0.839526
2 \$1686:1 u_encoder\/_00_ 0.009421
*RES
1 \$1686:1 \$1686:2 23.748600
2 \$1686:1 \$1686:3 27.599400
3 \$1686:1 \$1686:4 22.372100
4 \$1686:1 \$1686:5 12.741300
5 \$1686:1 \$1686:6 22.897300
6 \$1686:1 \$1686:7 13.523900
*END

*D_NET \$1687 0.850635
*CAP
1 \$1687:1 0.814120
2 \$1687:1 stuff_out_bit 0.000702
3 \$1687:1 u_encoder\/_00_ 0.006828
4 \$1687:1 u_encoder\/_04_ 0.028985
*RES
1 \$1687:1 \$1687:2 15.499600
2 \$1687:1 \$1687:3 16.527400
3 \$1687:1 \$1687:4 10.298700
4 \$1687:1 \$1687:5 13.857700
5 \$1687:1 \$1687:6 10.523900
6 \$1687:1 \$1687:7 17.319100
*END

*D_NET \$1688 0.983465
*CAP
1 \$1688:1 0.963155
2 \$1688:1 enc_line_bit 0.008287
3 \$1688:1 u_encoder\/_05_ 0.003801
4 \$1688:1 u_encoder\/_06_ 0.008222
*RES
1 \$1688:1 \$1688:2 17.360700
2 \$1688:1 \$1688:3 17.105400
3 \$1688:1 \$1688:4 16.870200
4 \$1688:1 \$1688:5 8.058000
5 \$1688:1 \$1688:6 13.771500
6 \$1688:1 \$1688:7 8.212700
*END

*D_NET \$1689 1.347996
*CAP
1 \$1689:1 1.338575
2 \$1689:1 enc_line_bit 0.009421
*RES
1 \$1689:1 \$1689:2 37.481600
2 \$1689:1 \$1689:3 18.380300
3 \$1689:1 \$1689:4 19.166400
4 \$1689:1 \$1689:5 30.960700
5 \$1689:1 \$1689:6 31.720400
6 \$1689:1 \$1689:7 37.678600
*END

*D_NET \$1691 2.902876
*CAP
1 \$1691:1 2.885156
2 \$1691:1 clknet_3_7__leaf_clk 0.004479
3 \$1691:1 u_stuffer\/_11_ 0.003801
4 \$1691:1 u_stuffer\/ones[0] 0.009440
*RES
1 \$1691:1 \$1691:2 82.156100
2 \$1691:1 \$1691:3 110.065100
3 \$1691:1 \$1691:4 34.925800
4 \$1691:1 \$1691:5 20.494200
5 \$1691:1 \$1691:6 48.068200
6 \$1691:1 \$1691:7 65.091900
7 \$1691:1 \$1691:8 65.705800
8 \$1691:1 \$1691:9 46.925300
*END

*D_NET \$1692 2.134569
*CAP
1 \$1692:1 2.126236
2 \$1692:1 u_stuffer\/_04_ 0.003801
3 \$1692:1 u_stuffer\/_11_ 0.004532
*RES
1 \$1692:1 \$1692:2 63.310200
2 \$1692:1 \$1692:3 48.046900
3 \$1692:1 \$1692:4 13.008400
4 \$1692:1 \$1692:5 23.606500
5 \$1692:1 \$1692:6 48.146100
6 \$1692:1 \$1692:7 47.329500
*END

*D_NET \$1693 0.847297
*CAP
1 \$1693:1 0.841231
2 \$1693:1 u_stuffer\/_04_ 0.000447
3 \$1693:1 u_stuffer\/_11_ 0.005619
*RES
1 \$1693:1 \$1693:2 23.748600
2 \$1693:1 \$1693:3 27.599400
3 \$1693:1 \$1693:4 22.372100
4 \$1693:1 \$1693:5 12.741300
5 \$1693:1 \$1693:6 22.897300
6 \$1693:1 \$1693:7 13.523900
*END

*D_NET \$1694 0.832679
*CAP
1 \$1694:1 0.832679
*RES
1 \$1694:1 \$1694:2 15.499600
2 \$1694:1 \$1694:3 16.527400
3 \$1694:1 \$1694:4 10.298700
4 \$1694:1 \$1694:5 13.857700
5 \$1694:1 \$1694:6 10.523900
6 \$1694:1 \$1694:7 17.319100
*END

*D_NET \$1695 0.973478
*CAP
1 \$1695:1 0.973478
*RES
1 \$1695:1 \$1695:2 17.360700
2 \$1695:1 \$1695:3 17.105400
3 \$1695:1 \$1695:4 16.870200
4 \$1695:1 \$1695:5 8.058000
5 \$1695:1 \$1695:6 13.771500
6 \$1695:1 \$1695:7 8.212700
*END

*D_NET \$1696 1.343363
*CAP
1 \$1696:1 1.343363
*RES
1 \$1696:1 \$1696:2 37.481600
2 \$1696:1 \$1696:3 18.380300
3 \$1696:1 \$1696:4 19.166400
4 \$1696:1 \$1696:5 30.960700
5 \$1696:1 \$1696:6 31.720400
6 \$1696:1 \$1696:7 37.678600
*END

*D_NET \$1737 2.898431
*CAP
1 \$1737:1 2.889751
2 \$1737:1 u_sync_detector\/_00_ 0.003801
3 \$1737:1 u_sync_detector\/_11_ 0.004879
*RES
1 \$1737:1 \$1737:2 82.156100
2 \$1737:1 \$1737:3 110.065100
3 \$1737:1 \$1737:4 34.925800
4 \$1737:1 \$1737:5 20.494200
5 \$1737:1 \$1737:6 48.068200
6 \$1737:1 \$1737:7 65.091900
7 \$1737:1 \$1737:8 65.705800
8 \$1737:1 \$1737:9 46.925300
*END

*D_NET \$1738 0.833207
*CAP
1 \$1738:1 0.832133
2 \$1738:1 clknet_3_2__leaf_clk 0.001074
*RES
1 \$1738:1 \$1738:2 16.527400
2 \$1738:1 \$1738:3 15.499600
3 \$1738:1 \$1738:4 10.523900
4 \$1738:1 \$1738:5 10.298700
5 \$1738:1 \$1738:6 13.857700
6 \$1738:1 \$1738:7 17.319100
*END

*D_NET \$1739 1.343363
*CAP
1 \$1739:1 1.343363
*RES
1 \$1739:1 \$1739:2 19.166400
2 \$1739:1 \$1739:3 18.380300
3 \$1739:1 \$1739:4 30.960700
4 \$1739:1 \$1739:5 31.720400
5 \$1739:1 \$1739:6 37.481600
6 \$1739:1 \$1739:7 37.678600
*END

*D_NET \$1740 1.075095
*CAP
1 \$1740:1 1.071294
2 \$1740:1 u_eop_detector\/_26_ 0.003801
*RES
1 \$1740:1 \$1740:2 13.242300
2 \$1740:1 \$1740:3 21.267000
3 \$1740:1 \$1740:4 18.132100
4 \$1740:1 \$1740:5 16.491100
5 \$1740:1 \$1740:6 12.683900
*END

*D_NET \$1741 0.312302
*CAP
1 \$1741:1 0.312302
*RES
1 \$1741:1 \$1741:2 0.635800
2 \$1741:1 \$1741:3 0.035300
3 \$1741:1 \$1741:4 0.671100
*END

*D_NET \$1742 1.081133
*CAP
1 \$1742:1 1.065054
2 \$1742:1 _006_ 0.007603
3 \$1742:1 int_rst_n 0.003834
4 \$1742:1 u_eop_detector\/_09_ 0.004642
*RES
1 \$1742:1 \$1742:2 13.242300
2 \$1742:1 \$1742:3 21.267000
3 \$1742:1 \$1742:4 18.132100
4 \$1742:1 \$1742:5 16.491100
5 \$1742:1 \$1742:6 12.683900
*END

*D_NET \$1743 1.077378
*CAP
1 \$1743:1 1.068935
2 \$1743:1 _002_ 0.004642
3 \$1743:1 int_rst_n 0.003801
*RES
1 \$1743:1 \$1743:2 13.242300
2 \$1743:1 \$1743:3 21.267000
3 \$1743:1 \$1743:4 18.132100
4 \$1743:1 \$1743:5 16.491100
5 \$1743:1 \$1743:6 12.683900
*END

*D_NET \$1746 2.911209
*CAP
1 \$1746:1 2.876543
2 \$1746:1 u_encoder\/_00_ 0.014403
3 \$1746:1 u_encoder\/_04_ 0.008860
4 \$1746:1 u_encoder\/_05_ 0.003801
5 \$1746:1 u_encoder\/_06_ 0.003801
6 \$1746:1 u_stuffer\/_05_ 0.003801
*RES
1 \$1746:1 \$1746:2 82.156100
2 \$1746:1 \$1746:3 110.065100
3 \$1746:1 \$1746:4 34.925800
4 \$1746:1 \$1746:5 20.494200
5 \$1746:1 \$1746:6 48.068200
6 \$1746:1 \$1746:7 65.091900
7 \$1746:1 \$1746:8 65.705800
8 \$1746:1 \$1746:9 46.925300
*END

*D_NET \$1747 0.833024
*CAP
1 \$1747:1 0.832322
2 \$1747:1 u_encoder\/_02_ 0.000702
*RES
1 \$1747:1 \$1747:2 16.527400
2 \$1747:1 \$1747:3 15.499600
3 \$1747:1 \$1747:4 10.523900
4 \$1747:1 \$1747:5 10.298700
5 \$1747:1 \$1747:6 13.857700
6 \$1747:1 \$1747:7 17.319100
*END

*D_NET \$1748 1.345232
*CAP
1 \$1748:1 1.341431
2 \$1748:1 stuff_out_valid 0.003801
*RES
1 \$1748:1 \$1748:2 19.166400
2 \$1748:1 \$1748:3 18.380300
3 \$1748:1 \$1748:4 30.960700
4 \$1748:1 \$1748:5 31.720400
5 \$1748:1 \$1748:6 37.481600
6 \$1748:1 \$1748:7 37.678600
*END

*D_NET \$1752 2.134769
*CAP
1 \$1752:1 2.126030
2 \$1752:1 clknet_3_2__leaf_clk 0.004938
3 \$1752:1 u_sync_detector\/_11_ 0.003801
*RES
1 \$1752:1 \$1752:2 23.606500
2 \$1752:1 \$1752:3 63.310200
3 \$1752:1 \$1752:4 48.046900
4 \$1752:1 \$1752:5 13.008400
5 \$1752:1 \$1752:6 48.146100
6 \$1752:1 \$1752:7 47.329500
*END

*D_NET \$1753 0.849533
*CAP
1 \$1753:1 0.838919
2 \$1753:1 clknet_3_2__leaf_clk 0.003512
3 \$1753:1 u_sync_detector\/_00_ 0.001483
4 \$1753:1 u_sync_detector\/_11_ 0.005619
*RES
1 \$1753:1 \$1753:2 27.599400
2 \$1753:1 \$1753:3 23.748600
3 \$1753:1 \$1753:4 22.372100
4 \$1753:1 \$1753:5 12.741300
5 \$1753:1 \$1753:6 22.897300
6 \$1753:1 \$1753:7 13.523900
*END

*D_NET \$1754 0.973478
*CAP
1 \$1754:1 0.973478
*RES
1 \$1754:1 \$1754:2 17.105400
2 \$1754:1 \$1754:3 17.360700
3 \$1754:1 \$1754:4 16.870200
4 \$1754:1 \$1754:5 8.058000
5 \$1754:1 \$1754:6 13.771500
6 \$1754:1 \$1754:7 8.212700
*END

*D_NET \$1759 2.150265
*CAP
1 \$1759:1 2.110013
2 \$1759:1 u_encoder\/_02_ 0.004678
3 \$1759:1 u_encoder\/_05_ 0.027971
4 \$1759:1 u_encoder\/_06_ 0.007603
*RES
1 \$1759:1 \$1759:2 23.606500
2 \$1759:1 \$1759:3 63.310200
3 \$1759:1 \$1759:4 48.046900
4 \$1759:1 \$1759:5 13.008400
5 \$1759:1 \$1759:6 48.146100
6 \$1759:1 \$1759:7 47.329500
*END

*D_NET \$1760 0.845043
*CAP
1 \$1760:1 0.843560
2 \$1760:1 u_stuffer\/_05_ 0.001483
*RES
1 \$1760:1 \$1760:2 27.599400
2 \$1760:1 \$1760:3 23.748600
3 \$1760:1 \$1760:4 22.372100
4 \$1760:1 \$1760:5 12.741300
5 \$1760:1 \$1760:6 22.897300
6 \$1760:1 \$1760:7 13.523900
*END

*D_NET \$1761 0.973478
*CAP
1 \$1761:1 0.973478
*RES
1 \$1761:1 \$1761:2 17.105400
2 \$1761:1 \$1761:3 17.360700
3 \$1761:1 \$1761:4 16.870200
4 \$1761:1 \$1761:5 8.058000
5 \$1761:1 \$1761:6 13.771500
6 \$1761:1 \$1761:7 8.212700
*END

*D_NET \$1774 0.659425
*CAP
1 \$1774:1 0.652881
2 \$1774:1 stuff_out_bit 0.002743
3 \$1774:1 u_stuffer\/_03_ 0.003801
*RES
1 \$1774:1 \$1774:2 1.091700
2 \$1774:1 \$1774:3 1.091700
3 \$1774:1 \$1774:4 0.363900
4 \$1774:1 \$1774:5 0.363900
*END

*D_NET \$1794 2.896031
*CAP
1 \$1794:1 2.892230
2 \$1794:1 clknet_3_2__leaf_clk 0.003801
*RES
1 \$1794:1 \$1794:2 82.156100
2 \$1794:1 \$1794:3 110.065100
3 \$1794:1 \$1794:4 34.925800
4 \$1794:1 \$1794:5 20.494200
5 \$1794:1 \$1794:6 48.068200
6 \$1794:1 \$1794:7 65.091900
7 \$1794:1 \$1794:8 65.705800
8 \$1794:1 \$1794:9 46.925300
*END

*D_NET \$1795 2.144206
*CAP
1 \$1795:1 2.116276
2 \$1795:1 u_sync_detector\/_09_ 0.003801
3 \$1795:1 u_sync_detector\/_10_ 0.024129
*RES
1 \$1795:1 \$1795:2 63.310200
2 \$1795:1 \$1795:3 48.046900
3 \$1795:1 \$1795:4 13.008400
4 \$1795:1 \$1795:5 23.606500
5 \$1795:1 \$1795:6 48.146100
6 \$1795:1 \$1795:7 47.329500
*END

*D_NET \$1797 0.850674
*CAP
1 \$1797:1 0.837741
2 \$1797:1 u_sync_detector\/_01_ 0.009421
3 \$1797:1 u_sync_detector\/_09_ 0.003512
*RES
1 \$1797:1 \$1797:2 23.748600
2 \$1797:1 \$1797:3 27.599400
3 \$1797:1 \$1797:4 22.372100
4 \$1797:1 \$1797:5 12.741300
5 \$1797:1 \$1797:6 22.897300
6 \$1797:1 \$1797:7 13.523900
*END

*D_NET \$1798 0.837169
*CAP
1 \$1798:1 0.828038
2 \$1798:1 u_sync_detector\/_01_ 0.003512
3 \$1798:1 u_sync_detector\/_09_ 0.005619
*RES
1 \$1798:1 \$1798:2 15.499600
2 \$1798:1 \$1798:3 16.527400
3 \$1798:1 \$1798:4 10.298700
4 \$1798:1 \$1798:5 13.857700
5 \$1798:1 \$1798:6 10.523900
6 \$1798:1 \$1798:7 17.319100
*END

*D_NET \$1799 0.977283
*CAP
1 \$1799:1 0.969545
2 \$1799:1 u_sync_detector\/_10_ 0.003801
3 \$1799:1 u_sync_detector\/_11_ 0.000136
4 \$1799:1 u_sync_detector\/_12_ 0.003801
*RES
1 \$1799:1 \$1799:2 17.360700
2 \$1799:1 \$1799:3 17.105400
3 \$1799:1 \$1799:4 16.870200
4 \$1799:1 \$1799:5 8.058000
5 \$1799:1 \$1799:6 13.771500
6 \$1799:1 \$1799:7 8.212700
*END

*D_NET \$1800 1.349356
*CAP
1 \$1800:1 1.337168
2 \$1800:1 u_sync_detector\/_11_ 0.005619
3 \$1800:1 u_sync_detector\/_12_ 0.005619
4 \$1800:1 u_sync_detector\/match[2] 0.000950
*RES
1 \$1800:1 \$1800:2 37.481600
2 \$1800:1 \$1800:3 18.380300
3 \$1800:1 \$1800:4 19.166400
4 \$1800:1 \$1800:5 30.960700
5 \$1800:1 \$1800:6 31.720400
6 \$1800:1 \$1800:7 37.678600
*END

*D_NET \$1809 2.894162
*CAP
1 \$1809:1 2.894162
*RES
1 \$1809:1 \$1809:2 82.156100
2 \$1809:1 \$1809:3 110.065100
3 \$1809:1 \$1809:4 34.925800
4 \$1809:1 \$1809:5 20.494200
5 \$1809:1 \$1809:6 48.068200
6 \$1809:1 \$1809:7 65.091900
7 \$1809:1 \$1809:8 65.705800
8 \$1809:1 \$1809:9 46.925300
*END

*D_NET \$1810 2.134769
*CAP
1 \$1810:1 2.126030
2 \$1810:1 clknet_3_7__leaf_clk 0.008739
*RES
1 \$1810:1 \$1810:2 63.310200
2 \$1810:1 \$1810:3 48.046900
3 \$1810:1 \$1810:4 13.008400
4 \$1810:1 \$1810:5 23.606500
5 \$1810:1 \$1810:6 48.146100
6 \$1810:1 \$1810:7 47.329500
*END

*D_NET \$1811 0.846183
*CAP
1 \$1811:1 0.842382
2 \$1811:1 u_stuffer\/_03_ 0.003801
*RES
1 \$1811:1 \$1811:2 23.748600
2 \$1811:1 \$1811:3 27.599400
3 \$1811:1 \$1811:4 22.372100
4 \$1811:1 \$1811:5 12.741300
5 \$1811:1 \$1811:6 22.897300
6 \$1811:1 \$1811:7 13.523900
*END

*D_NET \$1812 0.832679
*CAP
1 \$1812:1 0.832679
*RES
1 \$1812:1 \$1812:2 15.499600
2 \$1812:1 \$1812:3 16.527400
3 \$1812:1 \$1812:4 10.298700
4 \$1812:1 \$1812:5 13.857700
5 \$1812:1 \$1812:6 10.523900
6 \$1812:1 \$1812:7 17.319100
*END

*D_NET \$1813 0.979213
*CAP
1 \$1813:1 0.967551
2 \$1813:1 clknet_3_7__leaf_clk 0.011662
*RES
1 \$1813:1 \$1813:2 17.360700
2 \$1813:1 \$1813:3 17.105400
3 \$1813:1 \$1813:4 16.870200
4 \$1813:1 \$1813:5 8.058000
5 \$1813:1 \$1813:6 13.771500
6 \$1813:1 \$1813:7 8.212700
*END

*D_NET \$1814 1.343688
*CAP
1 \$1814:1 1.343027
2 \$1814:1 u_stuffer\/_03_ 0.000661
*RES
1 \$1814:1 \$1814:2 37.481600
2 \$1814:1 \$1814:3 18.380300
3 \$1814:1 \$1814:4 19.166400
4 \$1814:1 \$1814:5 30.960700
5 \$1814:1 \$1814:6 31.720400
6 \$1814:1 \$1814:7 37.678600
*END

*D_NET \$1835 2.124274
*CAP
1 \$1835:1 2.083651
2 \$1835:1 clknet_3_3__leaf_clk 0.003801
3 \$1835:1 eop_pulse 0.003801
4 \$1835:1 u_eop_detector\/_00_ 0.003801
5 \$1835:1 u_eop_detector\/_11_ 0.003801
6 \$1835:1 u_eop_detector\/_12_ 0.005513
7 \$1835:1 u_eop_detector\/_13_ 0.008503
8 \$1835:1 u_eop_detector\/_14_ 0.003801
9 \$1835:1 u_eop_detector\/_15_ 0.003801
10 \$1835:1 u_eop_detector\/se0_count[5] 0.003801
*RES
1 \$1835:1 \$1835:2 2.323100
2 \$1835:1 \$1835:3 2.264200
3 \$1835:1 \$1835:4 1.058400
4 \$1835:1 \$1835:5 1.407100
5 \$1835:1 \$1835:6 1.087900
6 \$1835:1 \$1835:7 1.377700
*END

*D_NET \$1836 0.861948
*CAP
1 \$1836:1 0.842943
2 \$1836:1 clknet_3_7__leaf_clk 0.003801
3 \$1836:1 u_stuffer\/_00_ 0.003801
4 \$1836:1 u_stuffer\/_08_ 0.003801
5 \$1836:1 u_stuffer\/_09_ 0.003801
6 \$1836:1 u_stuffer\/_11_ 0.003801
*RES
1 \$1836:1 \$1836:2 1.394800
2 \$1836:1 \$1836:3 0.963100
3 \$1836:1 \$1836:4 0.022500
4 \$1836:1 \$1836:5 0.486400
5 \$1836:1 \$1836:6 0.634600
6 \$1836:1 \$1836:7 0.306000
*END

*D_NET \$1862 0.315097
*CAP
1 \$1862:1 0.309413
2 \$1862:1 u_eop_detector\/_23_ 0.005684
*RES
1 \$1862:1 \$1862:2 0.635800
2 \$1862:1 \$1862:3 0.035300
3 \$1862:1 \$1862:4 0.671100
*END

*D_NET \$1864 3.224281
*CAP
1 \$1864:1 3.207453
2 \$1864:1 clknet_3_3__leaf_clk 0.013027
3 \$1864:1 u_eop_detector\/se0_count[3] 0.003801
*RES
1 \$1864:1 \$1864:2 10.969400
2 \$1864:1 \$1864:3 29.676900
3 \$1864:1 \$1864:4 30.528700
4 \$1864:1 \$1864:5 23.647600
5 \$1864:1 \$1864:6 17.361900
6 \$1864:1 \$1864:7 12.597000
7 \$1864:1 \$1864:8 23.061900
8 \$1864:1 \$1864:9 16.685000
9 \$1864:1 \$1864:10 24.244900
10 \$1864:1 \$1864:11 17.882200
11 \$1864:1 \$1864:12 22.034600
12 \$1864:1 \$1864:13 9.628300
13 \$1864:1 \$1864:14 6.276400
14 \$1864:1 \$1864:15 35.495700
15 \$1864:1 \$1864:16 15.537600
16 \$1864:1 \$1864:17 28.723400
*END

*D_NET \$1867 2.906364
*CAP
1 \$1867:1 2.881550
2 \$1867:1 clknet_3_3__leaf_clk 0.006866
3 \$1867:1 u_eop_detector\/_06_ 0.003801
4 \$1867:1 u_eop_detector\/_09_ 0.003801
5 \$1867:1 u_eop_detector\/_17_ 0.008032
6 \$1867:1 u_eop_detector\/se0_count[5] 0.002314
*RES
1 \$1867:1 \$1867:2 82.156100
2 \$1867:1 \$1867:3 110.065100
3 \$1867:1 \$1867:4 34.925800
4 \$1867:1 \$1867:5 20.494200
5 \$1867:1 \$1867:6 48.068200
6 \$1867:1 \$1867:7 65.091900
7 \$1867:1 \$1867:8 65.705800
8 \$1867:1 \$1867:9 46.925300
*END

*D_NET \$1868 2.140351
*CAP
1 \$1868:1 2.120261
2 \$1868:1 u_eop_detector\/_06_ 0.020090
*RES
1 \$1868:1 \$1868:2 23.606500
2 \$1868:1 \$1868:3 63.310200
3 \$1868:1 \$1868:4 48.046900
4 \$1868:1 \$1868:5 13.008400
5 \$1868:1 \$1868:6 48.146100
6 \$1868:1 \$1868:7 47.329500
*END

*D_NET \$1869 0.844314
*CAP
1 \$1869:1 0.844314
*RES
1 \$1869:1 \$1869:2 27.599400
2 \$1869:1 \$1869:3 23.748600
3 \$1869:1 \$1869:4 22.372100
4 \$1869:1 \$1869:5 12.741300
5 \$1869:1 \$1869:6 22.897300
6 \$1869:1 \$1869:7 13.523900
*END

*D_NET \$1870 0.832679
*CAP
1 \$1870:1 0.832679
*RES
1 \$1870:1 \$1870:2 16.527400
2 \$1870:1 \$1870:3 15.499600
3 \$1870:1 \$1870:4 10.523900
4 \$1870:1 \$1870:5 10.298700
5 \$1870:1 \$1870:6 13.857700
6 \$1870:1 \$1870:7 17.319100
*END

*D_NET \$1871 0.973478
*CAP
1 \$1871:1 0.973478
*RES
1 \$1871:1 \$1871:2 17.105400
2 \$1871:1 \$1871:3 17.360700
3 \$1871:1 \$1871:4 16.870200
4 \$1871:1 \$1871:5 8.058000
5 \$1871:1 \$1871:6 13.771500
6 \$1871:1 \$1871:7 8.212700
*END

*D_NET \$1872 1.343444
*CAP
1 \$1872:1 1.343279
2 \$1872:1 u_eop_detector\/se0_count[5] 0.000165
*RES
1 \$1872:1 \$1872:2 19.166400
2 \$1872:1 \$1872:3 18.380300
3 \$1872:1 \$1872:4 30.960700
4 \$1872:1 \$1872:5 31.720400
5 \$1872:1 \$1872:6 37.481600
6 \$1872:1 \$1872:7 37.678600
*END

*D_NET \$1874 1.125129
*CAP
1 \$1874:1 1.114800
2 \$1874:1 u_stuffer\/_00_ 0.003801
3 \$1874:1 u_stuffer\/_08_ 0.006528
*RES
1 \$1874:1 \$1874:2 20.605000
2 \$1874:1 \$1874:3 15.008600
3 \$1874:1 \$1874:4 18.928400
4 \$1874:1 \$1874:5 15.930500
5 \$1874:1 \$1874:6 11.580900
*END

*D_NET \$1875 1.552544
*CAP
1 \$1875:1 1.552544
*RES
1 \$1875:1 \$1875:2 24.206200
2 \$1875:1 \$1875:3 24.607900
3 \$1875:1 \$1875:4 16.699600
4 \$1875:1 \$1875:5 16.983400
5 \$1875:1 \$1875:6 20.146800
6 \$1875:1 \$1875:7 29.217800
7 \$1875:1 \$1875:8 13.968000
8 \$1875:1 \$1875:9 20.488900
*END

*D_NET \$1890 0.343176
*CAP
1 \$1890:1 0.343176
*RES
1 \$1890:1 \$1890:2 0.741500
2 \$1890:1 \$1890:3 0.001000
3 \$1890:1 \$1890:4 0.741500
*END

*D_NET \$1900 1.527102
*CAP
1 \$1900:1 1.496727
2 \$1900:1 u_sync_detector\/_10_ 0.003801
3 \$1900:1 u_sync_detector\/match[2] 0.026574
*RES
1 \$1900:1 \$1900:2 16.804100
2 \$1900:1 \$1900:3 25.018700
3 \$1900:1 \$1900:4 27.230800
4 \$1900:1 \$1900:5 20.165300
5 \$1900:1 \$1900:6 28.507200
6 \$1900:1 \$1900:7 25.582100
7 \$1900:1 \$1900:8 16.473800
*END

*D_NET \$1901 2.137851
*CAP
1 \$1901:1 2.122844
2 \$1901:1 u_eop_detector\/_04_ 0.003801
3 \$1901:1 u_eop_detector\/_09_ 0.006528
4 \$1901:1 u_eop_detector\/_15_ 0.004678
*RES
1 \$1901:1 \$1901:2 63.310200
2 \$1901:1 \$1901:3 48.046900
3 \$1901:1 \$1901:4 13.008400
4 \$1901:1 \$1901:5 23.606500
5 \$1901:1 \$1901:6 48.146100
6 \$1901:1 \$1901:7 47.329500
*END

*D_NET \$1902 0.836814
*CAP
1 \$1902:1 0.828405
2 \$1902:1 u_eop_detector\/_04_ 0.003440
3 \$1902:1 u_eop_detector\/_15_ 0.004969
*RES
1 \$1902:1 \$1902:2 15.499600
2 \$1902:1 \$1902:3 16.527400
3 \$1902:1 \$1902:4 10.298700
4 \$1902:1 \$1902:5 13.857700
5 \$1902:1 \$1902:6 10.523900
6 \$1902:1 \$1902:7 17.319100
*END

*D_NET \$1903 1.345232
*CAP
1 \$1903:1 1.341431
2 \$1903:1 u_eop_detector\/_09_ 0.003801
*RES
1 \$1903:1 \$1903:2 37.481600
2 \$1903:1 \$1903:3 18.380300
3 \$1903:1 \$1903:4 19.166400
4 \$1903:1 \$1903:5 30.960700
5 \$1903:1 \$1903:6 31.720400
6 \$1903:1 \$1903:7 37.678600
*END

*D_NET \$1904 2.132340
*CAP
1 \$1904:1 2.128539
2 \$1904:1 u_eop_detector\/_07_ 0.003801
*RES
1 \$1904:1 \$1904:2 63.310200
2 \$1904:1 \$1904:3 48.046900
3 \$1904:1 \$1904:4 13.008400
4 \$1904:1 \$1904:5 23.606500
5 \$1904:1 \$1904:6 48.146100
6 \$1904:1 \$1904:7 47.329500
*END

*D_NET \$1905 0.832679
*CAP
1 \$1905:1 0.832679
*RES
1 \$1905:1 \$1905:2 15.499600
2 \$1905:1 \$1905:3 16.527400
3 \$1905:1 \$1905:4 10.298700
4 \$1905:1 \$1905:5 13.857700
5 \$1905:1 \$1905:6 10.523900
6 \$1905:1 \$1905:7 17.319100
*END

*D_NET \$1906 1.348462
*CAP
1 \$1906:1 1.338092
2 \$1906:1 eop_pulse 0.000950
3 \$1906:1 u_eop_detector\/_14_ 0.005619
4 \$1906:1 u_eop_detector\/_15_ 0.003801
*RES
1 \$1906:1 \$1906:2 37.481600
2 \$1906:1 \$1906:3 18.380300
3 \$1906:1 \$1906:4 19.166400
4 \$1906:1 \$1906:5 30.960700
5 \$1906:1 \$1906:6 31.720400
6 \$1906:1 \$1906:7 37.678600
*END

*D_NET \$1909 2.132340
*CAP
1 \$1909:1 2.128539
2 \$1909:1 u_stuffer\/_00_ 0.003801
*RES
1 \$1909:1 \$1909:2 63.310200
2 \$1909:1 \$1909:3 48.046900
3 \$1909:1 \$1909:4 13.008400
4 \$1909:1 \$1909:5 23.606500
5 \$1909:1 \$1909:6 48.146100
6 \$1909:1 \$1909:7 47.329500
*END

*D_NET \$1910 0.832679
*CAP
1 \$1910:1 0.832679
*RES
1 \$1910:1 \$1910:2 15.499600
2 \$1910:1 \$1910:3 16.527400
3 \$1910:1 \$1910:4 10.298700
4 \$1910:1 \$1910:5 13.857700
5 \$1910:1 \$1910:6 10.523900
6 \$1910:1 \$1910:7 17.319100
*END

*D_NET \$1911 1.345232
*CAP
1 \$1911:1 1.341431
2 \$1911:1 u_stuffer\/ones[1] 0.003801
*RES
1 \$1911:1 \$1911:2 37.481600
2 \$1911:1 \$1911:3 18.380300
3 \$1911:1 \$1911:4 19.166400
4 \$1911:1 \$1911:5 30.960700
5 \$1911:1 \$1911:6 31.720400
6 \$1911:1 \$1911:7 37.678600
*END

*D_NET \$1912 2.901245
*CAP
1 \$1912:1 2.886842
2 \$1912:1 clknet_3_2__leaf_clk 0.014403
*RES
1 \$1912:1 \$1912:2 82.156100
2 \$1912:1 \$1912:3 110.065100
3 \$1912:1 \$1912:4 34.925800
4 \$1912:1 \$1912:5 20.494200
5 \$1912:1 \$1912:6 48.068200
6 \$1912:1 \$1912:7 65.091900
7 \$1912:1 \$1912:8 65.705800
8 \$1912:1 \$1912:9 46.925300
*END

*D_NET \$1913 0.847910
*CAP
1 \$1913:1 0.840597
2 \$1913:1 u_eop_detector\/_04_ 0.003801
3 \$1913:1 u_eop_detector\/_15_ 0.003512
*RES
1 \$1913:1 \$1913:2 23.748600
2 \$1913:1 \$1913:3 27.599400
3 \$1913:1 \$1913:4 22.372100
4 \$1913:1 \$1913:5 12.741300
5 \$1913:1 \$1913:6 22.897300
6 \$1913:1 \$1913:7 13.523900
*END

*D_NET \$1914 0.973478
*CAP
1 \$1914:1 0.973478
*RES
1 \$1914:1 \$1914:2 17.360700
2 \$1914:1 \$1914:3 17.105400
3 \$1914:1 \$1914:4 16.870200
4 \$1914:1 \$1914:5 8.058000
5 \$1914:1 \$1914:6 13.771500
6 \$1914:1 \$1914:7 8.212700
*END

*D_NET \$1915 2.897901
*CAP
1 \$1915:1 2.890298
2 \$1915:1 clknet_3_3__leaf_clk 0.007603
*RES
1 \$1915:1 \$1915:2 82.156100
2 \$1915:1 \$1915:3 110.065100
3 \$1915:1 \$1915:4 34.925800
4 \$1915:1 \$1915:5 20.494200
5 \$1915:1 \$1915:6 48.068200
6 \$1915:1 \$1915:7 65.091900
7 \$1915:1 \$1915:8 65.705800
8 \$1915:1 \$1915:9 46.925300
*END

*D_NET \$1916 0.844534
*CAP
1 \$1916:1 0.844087
2 \$1916:1 u_eop_detector\/_07_ 0.000447
*RES
1 \$1916:1 \$1916:2 23.748600
2 \$1916:1 \$1916:3 27.599400
3 \$1916:1 \$1916:4 22.372100
4 \$1916:1 \$1916:5 12.741300
5 \$1916:1 \$1916:6 22.897300
6 \$1916:1 \$1916:7 13.523900
*END

*D_NET \$1917 0.973545
*CAP
1 \$1917:1 0.973409
2 \$1917:1 u_eop_detector\/_14_ 0.000136
*RES
1 \$1917:1 \$1917:2 17.360700
2 \$1917:1 \$1917:3 17.105400
3 \$1917:1 \$1917:4 16.870200
4 \$1917:1 \$1917:5 8.058000
5 \$1917:1 \$1917:6 13.771500
6 \$1917:1 \$1917:7 8.212700
*END

*D_NET \$1918 2.896195
*CAP
1 \$1918:1 2.892062
2 \$1918:1 clknet_3_7__leaf_clk 0.004133
*RES
1 \$1918:1 \$1918:2 82.156100
2 \$1918:1 \$1918:3 110.065100
3 \$1918:1 \$1918:4 34.925800
4 \$1918:1 \$1918:5 20.494200
5 \$1918:1 \$1918:6 48.068200
6 \$1918:1 \$1918:7 65.091900
7 \$1918:1 \$1918:8 65.705800
8 \$1918:1 \$1918:9 46.925300
*END

*D_NET \$1919 0.844314
*CAP
1 \$1919:1 0.844314
*RES
1 \$1919:1 \$1919:2 23.748600
2 \$1919:1 \$1919:3 27.599400
3 \$1919:1 \$1919:4 22.372100
4 \$1919:1 \$1919:5 12.741300
5 \$1919:1 \$1919:6 22.897300
6 \$1919:1 \$1919:7 13.523900
*END

*D_NET \$1920 0.973478
*CAP
1 \$1920:1 0.973478
*RES
1 \$1920:1 \$1920:2 17.360700
2 \$1920:1 \$1920:3 17.105400
3 \$1920:1 \$1920:4 16.870200
4 \$1920:1 \$1920:5 8.058000
5 \$1920:1 \$1920:6 13.771500
6 \$1920:1 \$1920:7 8.212700
*END

*D_NET \$1946 1.099120
*CAP
1 \$1946:1 1.099120
*RES
1 \$1946:1 \$1946:2 21.320900
2 \$1946:1 \$1946:3 15.496500
3 \$1946:1 \$1946:4 18.137300
4 \$1946:1 \$1946:5 15.871400
5 \$1946:1 \$1946:6 11.125600
*END

*D_NET \$1947 0.305809
*CAP
1 \$1947:1 0.291108
2 \$1947:1 u_eop_detector\/_15_ 0.003801
3 \$1947:1 u_eop_detector\/_16_ 0.003801
4 \$1947:1 u_eop_detector\/se0_count[2] 0.007099
*RES
1 \$1947:1 \$1947:2 0.639800
2 \$1947:1 \$1947:3 0.001000
3 \$1947:1 \$1947:4 0.639800
*END

*D_NET \$1950 0.315687
*CAP
1 \$1950:1 0.308804
2 \$1950:1 u_eop_detector\/_14_ 0.006883
*RES
1 \$1950:1 \$1950:2 0.650500
2 \$1950:1 \$1950:3 0.020600
3 \$1950:1 \$1950:4 0.671100
*END

*D_NET \$1953 0.320435
*CAP
1 \$1953:1 0.303896
2 \$1953:1 u_eop_detector\/_10_ 0.005684
3 \$1953:1 u_eop_detector\/_20_ 0.003801
4 \$1953:1 u_eop_detector\/se0_count[1] 0.007054
*RES
1 \$1953:1 \$1953:2 0.635800
2 \$1953:1 \$1953:3 0.035300
3 \$1953:1 \$1953:4 0.671100
*END

*D_NET \$1954 2.907868
*CAP
1 \$1954:1 2.879996
2 \$1954:1 clknet_3_3__leaf_clk 0.005867
3 \$1954:1 u_eop_detector\/_03_ 0.003801
4 \$1954:1 u_eop_detector\/_17_ 0.014403
5 \$1954:1 u_eop_detector\/_18_ 0.003801
*RES
1 \$1954:1 \$1954:2 82.156100
2 \$1954:1 \$1954:3 110.065100
3 \$1954:1 \$1954:4 34.925800
4 \$1954:1 \$1954:5 20.494200
5 \$1954:1 \$1954:6 48.068200
6 \$1954:1 \$1954:7 65.091900
7 \$1954:1 \$1954:8 65.705800
8 \$1954:1 \$1954:9 46.925300
*END

*D_NET \$1955 2.137631
*CAP
1 \$1955:1 2.123071
2 \$1955:1 u_eop_detector\/_03_ 0.014560
*RES
1 \$1955:1 \$1955:2 23.606500
2 \$1955:1 \$1955:3 63.310200
3 \$1955:1 \$1955:4 48.046900
4 \$1955:1 \$1955:5 13.008400
5 \$1955:1 \$1955:6 48.146100
6 \$1955:1 \$1955:7 47.329500
*END

*D_NET \$1956 0.844314
*CAP
1 \$1956:1 0.844314
*RES
1 \$1956:1 \$1956:2 27.599400
2 \$1956:1 \$1956:3 23.748600
3 \$1956:1 \$1956:4 22.372100
4 \$1956:1 \$1956:5 12.741300
5 \$1956:1 \$1956:6 22.897300
6 \$1956:1 \$1956:7 13.523900
*END

*D_NET \$1957 0.832679
*CAP
1 \$1957:1 0.832679
*RES
1 \$1957:1 \$1957:2 16.527400
2 \$1957:1 \$1957:3 15.499600
3 \$1957:1 \$1957:4 10.523900
4 \$1957:1 \$1957:5 10.298700
5 \$1957:1 \$1957:6 13.857700
6 \$1957:1 \$1957:7 17.319100
*END

*D_NET \$1958 0.973478
*CAP
1 \$1958:1 0.973478
*RES
1 \$1958:1 \$1958:2 17.105400
2 \$1958:1 \$1958:3 17.360700
3 \$1958:1 \$1958:4 16.870200
4 \$1958:1 \$1958:5 8.058000
5 \$1958:1 \$1958:6 13.771500
6 \$1958:1 \$1958:7 8.212700
*END

*D_NET \$1959 1.345232
*CAP
1 \$1959:1 1.341431
2 \$1959:1 u_eop_detector\/se0_count[0] 0.003801
*RES
1 \$1959:1 \$1959:2 19.166400
2 \$1959:1 \$1959:3 18.380300
3 \$1959:1 \$1959:4 30.960700
4 \$1959:1 \$1959:5 31.720400
5 \$1959:1 \$1959:6 37.481600
6 \$1959:1 \$1959:7 37.678600
*END

*D_NET \$1960 0.316781
*CAP
1 \$1960:1 0.307673
2 \$1960:1 u_stuffer\/_13_ 0.009108
*RES
1 \$1960:1 \$1960:2 0.662600
2 \$1960:1 \$1960:3 0.671100
3 \$1960:1 \$1960:4 0.008500
*END

*D_NET \$1961 0.316040
*CAP
1 \$1961:1 0.308438
2 \$1961:1 u_stuffer\/_07_ 0.003801
3 \$1961:1 u_stuffer\/ones[2] 0.003801
*RES
1 \$1961:1 \$1961:2 0.650500
2 \$1961:1 \$1961:3 0.020600
3 \$1961:1 \$1961:4 0.671100
*END

*D_NET \$1979 2.132340
*CAP
1 \$1979:1 2.128539
2 \$1979:1 clknet_3_2__leaf_clk 0.003801
*RES
1 \$1979:1 \$1979:2 63.310200
2 \$1979:1 \$1979:3 48.046900
3 \$1979:1 \$1979:4 13.008400
4 \$1979:1 \$1979:5 23.606500
5 \$1979:1 \$1979:6 48.146100
6 \$1979:1 \$1979:7 47.329500
*END

*D_NET \$1980 0.839829
*CAP
1 \$1980:1 0.825289
2 \$1980:1 clknet_3_2__leaf_clk 0.014540
*RES
1 \$1980:1 \$1980:2 15.499600
2 \$1980:1 \$1980:3 16.527400
3 \$1980:1 \$1980:4 10.298700
4 \$1980:1 \$1980:5 13.857700
5 \$1980:1 \$1980:6 10.523900
6 \$1980:1 \$1980:7 17.319100
*END

*D_NET \$1981 1.343830
*CAP
1 \$1981:1 1.342880
2 \$1981:1 u_eop_detector\/se0_count[2] 0.000950
*RES
1 \$1981:1 \$1981:2 37.481600
2 \$1981:1 \$1981:3 18.380300
3 \$1981:1 \$1981:4 19.166400
4 \$1981:1 \$1981:5 30.960700
5 \$1981:1 \$1981:6 31.720400
6 \$1981:1 \$1981:7 37.678600
*END

*D_NET \$1982 2.152535
*CAP
1 \$1982:1 2.107667
2 \$1982:1 u_eop_detector\/_05_ 0.004532
3 \$1982:1 u_eop_detector\/_24_ 0.003801
4 \$1982:1 u_eop_detector\/_25_ 0.028056
5 \$1982:1 u_eop_detector\/se0_count[2] 0.003801
6 \$1982:1 u_eop_detector\/se0_count[3] 0.004678
*RES
1 \$1982:1 \$1982:2 63.310200
2 \$1982:1 \$1982:3 48.046900
3 \$1982:1 \$1982:4 13.008400
4 \$1982:1 \$1982:5 23.606500
5 \$1982:1 \$1982:6 48.146100
6 \$1982:1 \$1982:7 47.329500
*END

*D_NET \$1983 0.835787
*CAP
1 \$1983:1 0.829466
2 \$1983:1 u_eop_detector\/se0_count[2] 0.005619
3 \$1983:1 u_eop_detector\/se0_count[3] 0.000702
*RES
1 \$1983:1 \$1983:2 15.499600
2 \$1983:1 \$1983:3 16.527400
3 \$1983:1 \$1983:4 10.298700
4 \$1983:1 \$1983:5 13.857700
5 \$1983:1 \$1983:6 10.523900
6 \$1983:1 \$1983:7 17.319100
*END

*D_NET \$1984 1.343363
*CAP
1 \$1984:1 1.343363
*RES
1 \$1984:1 \$1984:2 37.481600
2 \$1984:1 \$1984:3 18.380300
3 \$1984:1 \$1984:4 19.166400
4 \$1984:1 \$1984:5 30.960700
5 \$1984:1 \$1984:6 31.720400
6 \$1984:1 \$1984:7 37.678600
*END

*D_NET \$1985 2.136078
*CAP
1 \$1985:1 2.124675
2 \$1985:1 u_eop_detector\/_02_ 0.003801
3 \$1985:1 u_eop_detector\/_14_ 0.003801
4 \$1985:1 u_eop_detector\/_15_ 0.003801
*RES
1 \$1985:1 \$1985:2 63.310200
2 \$1985:1 \$1985:3 48.046900
3 \$1985:1 \$1985:4 13.008400
4 \$1985:1 \$1985:5 23.606500
5 \$1985:1 \$1985:6 48.146100
6 \$1985:1 \$1985:7 47.329500
*END

*D_NET \$1986 0.838433
*CAP
1 \$1986:1 0.826730
2 \$1986:1 u_eop_detector\/_02_ 0.000465
3 \$1986:1 u_eop_detector\/_14_ 0.005619
4 \$1986:1 u_eop_detector\/_15_ 0.005619
*RES
1 \$1986:1 \$1986:2 15.499600
2 \$1986:1 \$1986:3 16.527400
3 \$1986:1 \$1986:4 10.298700
4 \$1986:1 \$1986:5 13.857700
5 \$1986:1 \$1986:6 10.523900
6 \$1986:1 \$1986:7 17.319100
*END

*D_NET \$1987 1.345232
*CAP
1 \$1987:1 1.341431
2 \$1987:1 u_eop_detector\/se0_count[1] 0.003801
*RES
1 \$1987:1 \$1987:2 37.481600
2 \$1987:1 \$1987:3 18.380300
3 \$1987:1 \$1987:4 19.166400
4 \$1987:1 \$1987:5 30.960700
5 \$1987:1 \$1987:6 31.720400
6 \$1987:1 \$1987:7 37.678600
*END

*D_NET \$1988 2.130471
*CAP
1 \$1988:1 2.130471
*RES
1 \$1988:1 \$1988:2 63.310200
2 \$1988:1 \$1988:3 48.046900
3 \$1988:1 \$1988:4 13.008400
4 \$1988:1 \$1988:5 23.606500
5 \$1988:1 \$1988:6 48.146100
6 \$1988:1 \$1988:7 47.329500
*END

*D_NET \$1989 0.832679
*CAP
1 \$1989:1 0.832679
*RES
1 \$1989:1 \$1989:2 15.499600
2 \$1989:1 \$1989:3 16.527400
3 \$1989:1 \$1989:4 10.298700
4 \$1989:1 \$1989:5 13.857700
5 \$1989:1 \$1989:6 10.523900
6 \$1989:1 \$1989:7 17.319100
*END

*D_NET \$1990 1.343444
*CAP
1 \$1990:1 1.343279
2 \$1990:1 u_stuffer\/_01_ 0.000165
*RES
1 \$1990:1 \$1990:2 37.481600
2 \$1990:1 \$1990:3 18.380300
3 \$1990:1 \$1990:4 19.166400
4 \$1990:1 \$1990:5 30.960700
5 \$1990:1 \$1990:6 31.720400
6 \$1990:1 \$1990:7 37.678600
*END

*D_NET \$1991 2.896031
*CAP
1 \$1991:1 2.892230
2 \$1991:1 u_eop_detector\/_01_ 0.003801
*RES
1 \$1991:1 \$1991:2 82.156100
2 \$1991:1 \$1991:3 110.065100
3 \$1991:1 \$1991:4 34.925800
4 \$1991:1 \$1991:5 20.494200
5 \$1991:1 \$1991:6 48.068200
6 \$1991:1 \$1991:7 65.091900
7 \$1991:1 \$1991:8 65.705800
8 \$1991:1 \$1991:9 46.925300
*END

*D_NET \$1993 0.848947
*CAP
1 \$1993:1 0.839526
2 \$1993:1 u_eop_detector\/_01_ 0.009421
*RES
1 \$1993:1 \$1993:2 23.748600
2 \$1993:1 \$1993:3 27.599400
3 \$1993:1 \$1993:4 22.372100
4 \$1993:1 \$1993:5 12.741300
5 \$1993:1 \$1993:6 22.897300
6 \$1993:1 \$1993:7 13.523900
*END

*D_NET \$1994 0.973478
*CAP
1 \$1994:1 0.973478
*RES
1 \$1994:1 \$1994:2 17.360700
2 \$1994:1 \$1994:3 17.105400
3 \$1994:1 \$1994:4 16.870200
4 \$1994:1 \$1994:5 8.058000
5 \$1994:1 \$1994:6 13.771500
6 \$1994:1 \$1994:7 8.212700
*END

*D_NET \$1995 2.911740
*CAP
1 \$1995:1 2.875996
2 \$1995:1 u_eop_detector\/_09_ 0.008860
3 \$1995:1 u_eop_detector\/_16_ 0.014403
4 \$1995:1 u_eop_detector\/_24_ 0.004879
5 \$1995:1 u_eop_detector\/_25_ 0.003801
6 \$1995:1 u_eop_detector\/se0_count[2] 0.003801
*RES
1 \$1995:1 \$1995:2 82.156100
2 \$1995:1 \$1995:3 110.065100
3 \$1995:1 \$1995:4 34.925800
4 \$1995:1 \$1995:5 20.494200
5 \$1995:1 \$1995:6 48.068200
6 \$1995:1 \$1995:7 65.091900
7 \$1995:1 \$1995:8 65.705800
8 \$1995:1 \$1995:9 46.925300
*END

*D_NET \$1996 0.850937
*CAP
1 \$1996:1 0.837469
2 \$1996:1 u_eop_detector\/_05_ 0.003801
3 \$1996:1 u_eop_detector\/_24_ 0.005619
4 \$1996:1 u_eop_detector\/se0_count[2] 0.004048
*RES
1 \$1996:1 \$1996:2 23.748600
2 \$1996:1 \$1996:3 27.599400
3 \$1996:1 \$1996:4 22.372100
4 \$1996:1 \$1996:5 12.741300
5 \$1996:1 \$1996:6 22.897300
6 \$1996:1 \$1996:7 13.523900
*END

*D_NET \$1997 0.973478
*CAP
1 \$1997:1 0.973478
*RES
1 \$1997:1 \$1997:2 17.360700
2 \$1997:1 \$1997:3 17.105400
3 \$1997:1 \$1997:4 16.870200
4 \$1997:1 \$1997:5 8.058000
5 \$1997:1 \$1997:6 13.771500
6 \$1997:1 \$1997:7 8.212700
*END

*D_NET \$1998 2.896031
*CAP
1 \$1998:1 2.892230
2 \$1998:1 clknet_3_3__leaf_clk 0.003801
*RES
1 \$1998:1 \$1998:2 82.156100
2 \$1998:1 \$1998:3 110.065100
3 \$1998:1 \$1998:4 34.925800
4 \$1998:1 \$1998:5 20.494200
5 \$1998:1 \$1998:6 48.068200
6 \$1998:1 \$1998:7 65.091900
7 \$1998:1 \$1998:8 65.705800
8 \$1998:1 \$1998:9 46.925300
*END

*D_NET \$1999 0.850673
*CAP
1 \$1999:1 0.837741
2 \$1999:1 u_eop_detector\/_02_ 0.003801
3 \$1999:1 u_eop_detector\/_14_ 0.005619
4 \$1999:1 u_eop_detector\/_15_ 0.003512
*RES
1 \$1999:1 \$1999:2 23.748600
2 \$1999:1 \$1999:3 27.599400
3 \$1999:1 \$1999:4 22.372100
4 \$1999:1 \$1999:5 12.741300
5 \$1999:1 \$1999:6 22.897300
6 \$1999:1 \$1999:7 13.523900
*END

*D_NET \$2000 0.973478
*CAP
1 \$2000:1 0.973478
*RES
1 \$2000:1 \$2000:2 17.360700
2 \$2000:1 \$2000:3 17.105400
3 \$2000:1 \$2000:4 16.870200
4 \$2000:1 \$2000:5 8.058000
5 \$2000:1 \$2000:6 13.771500
6 \$2000:1 \$2000:7 8.212700
*END

*D_NET \$2001 2.896031
*CAP
1 \$2001:1 2.892230
2 \$2001:1 clknet_3_7__leaf_clk 0.003801
*RES
1 \$2001:1 \$2001:2 82.156100
2 \$2001:1 \$2001:3 110.065100
3 \$2001:1 \$2001:4 34.925800
4 \$2001:1 \$2001:5 20.494200
5 \$2001:1 \$2001:6 48.068200
6 \$2001:1 \$2001:7 65.091900
7 \$2001:1 \$2001:8 65.705800
8 \$2001:1 \$2001:9 46.925300
*END

*D_NET \$2002 0.846183
*CAP
1 \$2002:1 0.842382
2 \$2002:1 u_stuffer\/_01_ 0.003801
*RES
1 \$2002:1 \$2002:2 23.748600
2 \$2002:1 \$2002:3 27.599400
3 \$2002:1 \$2002:4 22.372100
4 \$2002:1 \$2002:5 12.741300
5 \$2002:1 \$2002:6 22.897300
6 \$2002:1 \$2002:7 13.523900
*END

*D_NET \$2003 0.973478
*CAP
1 \$2003:1 0.973478
*RES
1 \$2003:1 \$2003:2 17.360700
2 \$2003:1 \$2003:3 17.105400
3 \$2003:1 \$2003:4 16.870200
4 \$2003:1 \$2003:5 8.058000
5 \$2003:1 \$2003:6 13.771500
6 \$2003:1 \$2003:7 8.212700
*END

*D_NET \$2017 0.312302
*CAP
1 \$2017:1 0.312302
*RES
1 \$2017:1 \$2017:2 0.635800
2 \$2017:1 \$2017:3 0.035300
3 \$2017:1 \$2017:4 0.671100
*END

*D_NET \$2031 1.410933
*CAP
1 \$2031:1 1.373750
2 \$2031:1 u_eop_detector\/_15_ 0.003801
3 \$2031:1 u_eop_detector\/_24_ 0.012604
4 \$2031:1 u_eop_detector\/_25_ 0.007603
5 \$2031:1 u_eop_detector\/se0_count[2] 0.008724
6 \$2031:1 u_eop_detector\/se0_count[3] 0.004451
*RES
1 \$2031:1 \$2031:2 20.054900
2 \$2031:1 \$2031:3 13.074400
3 \$2031:1 \$2031:4 14.337600
4 \$2031:1 \$2031:5 17.436700
5 \$2031:1 \$2031:6 8.577400
6 \$2031:1 \$2031:7 9.326200
*END

*D_NET \$2037 0.312302
*CAP
1 \$2037:1 0.312302
*RES
1 \$2037:1 \$2037:2 0.635800
2 \$2037:1 \$2037:3 0.035300
3 \$2037:1 \$2037:4 0.671100
*END

*D_NET \$210 2.906852
*CAP
1 \$210:1 2.881046
2 \$210:1 _114_ 0.014403
3 \$210:1 clknet_3_0__leaf_clk 0.003801
4 \$210:1 destuff_out_bit 0.003801
5 \$210:1 rx_shift[7] 0.003801
*RES
1 \$210:1 \$210:2 82.156100
2 \$210:1 \$210:3 110.065100
3 \$210:1 \$210:4 34.925800
4 \$210:1 \$210:5 20.494200
5 \$210:1 \$210:6 48.068200
6 \$210:1 \$210:7 65.091900
7 \$210:1 \$210:8 65.705800
8 \$210:1 \$210:9 46.925300
*END

*D_NET \$211 2.140207
*CAP
1 \$211:1 2.120408
2 \$211:1 _023_ 0.004532
3 \$211:1 destuff_out_bit 0.008739
4 \$211:1 rx_shift[7] 0.006528
*RES
1 \$211:1 \$211:2 63.310200
2 \$211:1 \$211:3 48.046900
3 \$211:1 \$211:4 13.008400
4 \$211:1 \$211:5 23.606500
5 \$211:1 \$211:6 48.146100
6 \$211:1 \$211:7 47.329500
*END

*D_NET \$212 0.847361
*CAP
1 \$212:1 0.841164
2 \$212:1 _023_ 0.003801
3 \$212:1 rx_shift[7] 0.002396
*RES
1 \$212:1 \$212:2 23.748600
2 \$212:1 \$212:3 27.599400
3 \$212:1 \$212:4 22.372100
4 \$212:1 \$212:5 12.741300
5 \$212:1 \$212:6 22.897300
6 \$212:1 \$212:7 13.523900
*END

*D_NET \$213 0.832679
*CAP
1 \$213:1 0.832679
*RES
1 \$213:1 \$213:2 15.499600
2 \$213:1 \$213:3 16.527400
3 \$213:1 \$213:4 10.298700
4 \$213:1 \$213:5 13.857700
5 \$213:1 \$213:6 10.523900
6 \$213:1 \$213:7 17.319100
*END

*D_NET \$214 0.973478
*CAP
1 \$214:1 0.973478
*RES
1 \$214:1 \$214:2 17.360700
2 \$214:1 \$214:3 17.105400
3 \$214:1 \$214:4 16.870200
4 \$214:1 \$214:5 8.058000
5 \$214:1 \$214:6 13.771500
6 \$214:1 \$214:7 8.212700
*END

*D_NET \$215 1.343363
*CAP
1 \$215:1 1.343363
*RES
1 \$215:1 \$215:2 37.481600
2 \$215:1 \$215:3 18.380300
3 \$215:1 \$215:4 19.166400
4 \$215:1 \$215:5 30.960700
5 \$215:1 \$215:6 31.720400
6 \$215:1 \$215:7 37.678600
*END

*D_NET \$216 2.902299
*CAP
1 \$216:1 2.885753
2 \$216:1 _038_ 0.003801
3 \$216:1 clknet_3_0__leaf_clk 0.012745
*RES
1 \$216:1 \$216:2 82.156100
2 \$216:1 \$216:3 110.065100
3 \$216:1 \$216:4 34.925800
4 \$216:1 \$216:5 20.494200
5 \$216:1 \$216:6 48.068200
6 \$216:1 \$216:7 65.091900
7 \$216:1 \$216:8 65.705800
8 \$216:1 \$216:9 46.925300
*END

*D_NET \$217 2.132340
*CAP
1 \$217:1 2.128539
2 \$217:1 rx_shift[6] 0.003801
*RES
1 \$217:1 \$217:2 63.310200
2 \$217:1 \$217:3 48.046900
3 \$217:1 \$217:4 13.008400
4 \$217:1 \$217:5 23.606500
5 \$217:1 \$217:6 48.146100
6 \$217:1 \$217:7 47.329500
*END

*D_NET \$219 0.847806
*CAP
1 \$219:1 0.840704
2 \$219:1 _038_ 0.001483
3 \$219:1 rx_shift[6] 0.005619
*RES
1 \$219:1 \$219:2 23.748600
2 \$219:1 \$219:3 27.599400
3 \$219:1 \$219:4 22.372100
4 \$219:1 \$219:5 12.741300
5 \$219:1 \$219:6 22.897300
6 \$219:1 \$219:7 13.523900
*END

*D_NET \$220 0.835138
*CAP
1 \$220:1 0.830138
2 \$220:1 rx_shift[6] 0.005000
*RES
1 \$220:1 \$220:2 15.499600
2 \$220:1 \$220:3 16.527400
3 \$220:1 \$220:4 10.298700
4 \$220:1 \$220:5 13.857700
5 \$220:1 \$220:6 10.523900
6 \$220:1 \$220:7 17.319100
*END

*D_NET \$221 0.973478
*CAP
1 \$221:1 0.973478
*RES
1 \$221:1 \$221:2 17.360700
2 \$221:1 \$221:3 17.105400
3 \$221:1 \$221:4 16.870200
4 \$221:1 \$221:5 8.058000
5 \$221:1 \$221:6 13.771500
6 \$221:1 \$221:7 8.212700
*END

*D_NET \$222 1.343363
*CAP
1 \$222:1 1.343363
*RES
1 \$222:1 \$222:2 37.481600
2 \$222:1 \$222:3 18.380300
3 \$222:1 \$222:4 19.166400
4 \$222:1 \$222:5 30.960700
5 \$222:1 \$222:6 31.720400
6 \$222:1 \$222:7 37.678600
*END

*D_NET \$225 1.134428
*CAP
1 \$225:1 1.126826
2 \$225:1 DataIn[3] 0.003801
3 \$225:1 Reset 0.003801
*RES
1 \$225:1 \$225:2 15.959000
2 \$225:1 \$225:3 17.797300
3 \$225:1 \$225:4 10.608600
4 \$225:1 \$225:5 14.705300
5 \$225:1 \$225:6 9.230600
6 \$225:1 \$225:7 13.807700
*END

*D_NET \$226 1.219377
*CAP
1 \$226:1 1.207973
2 \$226:1 _114_ 0.007603
3 \$226:1 txdp 0.003801
*RES
1 \$226:1 \$226:2 27.185500
2 \$226:1 \$226:3 22.143400
3 \$226:1 \$226:4 25.661100
4 \$226:1 \$226:5 31.800600
*END

*D_NET \$232 2.896031
*CAP
1 \$232:1 2.892230
2 \$232:1 clknet_3_5__leaf_clk 0.003801
*RES
1 \$232:1 \$232:2 82.156100
2 \$232:1 \$232:3 110.065100
3 \$232:1 \$232:4 34.925800
4 \$232:1 \$232:5 20.494200
5 \$232:1 \$232:6 48.068200
6 \$232:1 \$232:7 65.091900
7 \$232:1 \$232:8 65.705800
8 \$232:1 \$232:9 46.925300
*END

*D_NET \$234 2.137453
*CAP
1 \$234:1 2.123255
2 \$234:1 _047_ 0.009520
3 \$234:1 cur_byte[6] 0.004678
*RES
1 \$234:1 \$234:2 63.310200
2 \$234:1 \$234:3 48.046900
3 \$234:1 \$234:4 13.008400
4 \$234:1 \$234:5 23.606500
5 \$234:1 \$234:6 48.146100
6 \$234:1 \$234:7 47.329500
*END

*D_NET \$235 0.844314
*CAP
1 \$235:1 0.844314
*RES
1 \$235:1 \$235:2 23.748600
2 \$235:1 \$235:3 27.599400
3 \$235:1 \$235:4 22.372100
4 \$235:1 \$235:5 12.741300
5 \$235:1 \$235:6 22.897300
6 \$235:1 \$235:7 13.523900
*END

*D_NET \$236 0.833024
*CAP
1 \$236:1 0.832322
2 \$236:1 cur_byte[6] 0.000702
*RES
1 \$236:1 \$236:2 15.499600
2 \$236:1 \$236:3 16.527400
3 \$236:1 \$236:4 10.298700
4 \$236:1 \$236:5 13.857700
5 \$236:1 \$236:6 10.523900
6 \$236:1 \$236:7 17.319100
*END

*D_NET \$237 0.973478
*CAP
1 \$237:1 0.973478
*RES
1 \$237:1 \$237:2 17.360700
2 \$237:1 \$237:3 17.105400
3 \$237:1 \$237:4 16.870200
4 \$237:1 \$237:5 8.058000
5 \$237:1 \$237:6 13.771500
6 \$237:1 \$237:7 8.212700
*END

*D_NET \$238 1.343363
*CAP
1 \$238:1 1.343363
*RES
1 \$238:1 \$238:2 37.481600
2 \$238:1 \$238:3 18.380300
3 \$238:1 \$238:4 19.166400
4 \$238:1 \$238:5 30.960700
5 \$238:1 \$238:6 31.720400
6 \$238:1 \$238:7 37.678600
*END

*D_NET \$25 2.130471
*CAP
1 \$25:1 2.130471
*RES
1 \$25:1 \$25:2 48.146100
2 \$25:1 \$25:3 23.606500
3 \$25:1 \$25:4 13.008400
4 \$25:1 \$25:5 48.046900
5 \$25:1 \$25:6 63.310200
6 \$25:1 \$25:7 47.329500
*END

*D_NET \$26 0.832679
*CAP
1 \$26:1 0.832679
*RES
1 \$26:1 \$26:2 16.527400
2 \$26:1 \$26:3 15.499600
3 \$26:1 \$26:4 13.857700
4 \$26:1 \$26:5 10.298700
5 \$26:1 \$26:6 17.319100
6 \$26:1 \$26:7 10.523900
*END

*D_NET \$265 0.316966
*CAP
1 \$265:1 0.307481
2 \$265:1 DataOut[3] 0.003801
3 \$265:1 _097_ 0.005684
*RES
1 \$265:1 \$265:2 0.635800
2 \$265:1 \$265:3 0.035300
3 \$265:1 \$265:4 0.671100
*END

*D_NET \$266 0.313846
*CAP
1 \$266:1 0.310706
2 \$266:1 _086_ 0.003140
*RES
1 \$266:1 \$266:2 0.635800
2 \$266:1 \$266:3 0.035300
3 \$266:1 \$266:4 0.671100
*END

*D_NET \$267 0.858210
*CAP
1 \$267:1 0.846807
2 \$267:1 _057_ 0.003801
3 \$267:1 _077_ 0.003801
4 \$267:1 tx_state[3] 0.003801
*RES
1 \$267:1 \$267:2 1.394800
2 \$267:1 \$267:3 0.963100
3 \$267:1 \$267:4 0.022500
4 \$267:1 \$267:5 0.486400
5 \$267:1 \$267:6 0.634600
6 \$267:1 \$267:7 0.306000
*END

*D_NET \$268 0.866612
*CAP
1 \$268:1 0.838122
2 \$268:1 _011_ 0.003801
3 \$268:1 _054_ 0.003801
4 \$268:1 _078_ 0.003801
5 \$268:1 _082_ 0.003801
6 \$268:1 _083_ 0.003801
7 \$268:1 _140_ 0.003801
8 \$268:1 clknet_3_5__leaf_clk 0.005684
*RES
1 \$268:1 \$268:2 1.394800
2 \$268:1 \$268:3 0.963100
3 \$268:1 \$268:4 0.022500
4 \$268:1 \$268:5 0.486400
5 \$268:1 \$268:6 0.634600
6 \$268:1 \$268:7 0.306000
*END

*D_NET \$27 1.344103
*CAP
1 \$27:1 1.342598
2 \$27:1 DataIn[7] 0.001505
*RES
1 \$27:1 \$27:2 37.678600
2 \$27:1 \$27:3 31.720400
3 \$27:1 \$27:4 30.960700
4 \$27:1 \$27:5 19.166400
5 \$27:1 \$27:6 18.380300
6 \$27:1 \$27:7 37.481600
*END

*D_NET \$288 1.140173
*CAP
1 \$288:1 1.120887
2 \$288:1 clknet_3_0__leaf_clk 0.002765
3 \$288:1 destuff_out_bit 0.012720
4 \$288:1 destuff_out_valid 0.003801
*RES
1 \$288:1 \$288:2 17.797300
2 \$288:1 \$288:3 15.959000
3 \$288:1 \$288:4 10.608600
4 \$288:1 \$288:5 14.705300
5 \$288:1 \$288:6 9.230600
6 \$288:1 \$288:7 13.807700
*END

*D_NET \$291 1.132049
*CAP
1 \$291:1 1.129284
2 \$291:1 rx_shift[5] 0.002765
*RES
1 \$291:1 \$291:2 17.797300
2 \$291:1 \$291:3 15.959000
3 \$291:1 \$291:4 10.608600
4 \$291:1 \$291:5 14.705300
5 \$291:1 \$291:6 9.230600
6 \$291:1 \$291:7 13.807700
*END

*D_NET \$292 1.130690
*CAP
1 \$292:1 1.130690
*RES
1 \$292:1 \$292:2 17.797300
2 \$292:1 \$292:3 15.959000
3 \$292:1 \$292:4 10.608600
4 \$292:1 \$292:5 14.705300
5 \$292:1 \$292:6 9.230600
6 \$292:1 \$292:7 13.807700
*END

*D_NET \$295 1.218308
*CAP
1 \$295:1 1.209077
2 \$295:1 clknet_3_0__leaf_clk 0.005430
3 \$295:1 rx_shift[7] 0.003801
*RES
1 \$295:1 \$295:2 27.185500
2 \$295:1 \$295:3 22.143400
3 \$295:1 \$295:4 25.661100
4 \$295:1 \$295:5 31.800600
*END

*D_NET \$296 1.075095
*CAP
1 \$296:1 1.071294
2 \$296:1 _127_ 0.003801
*RES
1 \$296:1 \$296:2 18.132100
2 \$296:1 \$296:3 21.267000
3 \$296:1 \$296:4 13.242300
4 \$296:1 \$296:5 12.683900
5 \$296:1 \$296:6 16.491100
*END

*D_NET \$297 1.077378
*CAP
1 \$297:1 1.068935
2 \$297:1 _128_ 0.003801
3 \$297:1 rx_shift[5] 0.004642
*RES
1 \$297:1 \$297:2 13.242300
2 \$297:1 \$297:3 21.267000
3 \$297:1 \$297:4 18.132100
4 \$297:1 \$297:5 16.491100
5 \$297:1 \$297:6 12.683900
*END

*D_NET \$299 1.218308
*CAP
1 \$299:1 1.209077
2 \$299:1 destuff_out_valid 0.003801
3 \$299:1 rx_shift[5] 0.005430
*RES
1 \$299:1 \$299:2 27.185500
2 \$299:1 \$299:3 22.143400
3 \$299:1 \$299:4 25.661100
4 \$299:1 \$299:5 31.800600
*END

*D_NET \$30 2.130471
*CAP
1 \$30:1 2.130471
*RES
1 \$30:1 \$30:2 63.310200
2 \$30:1 \$30:3 48.046900
3 \$30:1 \$30:4 13.008400
4 \$30:1 \$30:5 23.606500
5 \$30:1 \$30:6 48.146100
6 \$30:1 \$30:7 47.329500
*END

*D_NET \$301 1.225114
*CAP
1 \$301:1 1.202045
2 \$301:1 _009_ 0.003801
3 \$301:1 _053_ 0.015467
4 \$301:1 rx_shift[3] 0.003801
*RES
1 \$301:1 \$301:2 27.185500
2 \$301:1 \$301:3 22.143400
3 \$301:1 \$301:4 25.661100
4 \$301:1 \$301:5 31.800600
*END

*D_NET \$302 1.600586
*CAP
1 \$302:1 1.593479
2 \$302:1 Reset 0.007107
*RES
1 \$302:1 \$302:2 29.406800
2 \$302:1 \$302:3 25.138500
3 \$302:1 \$302:4 16.171900
4 \$302:1 \$302:5 27.961100
5 \$302:1 \$302:6 20.891400
6 \$302:1 \$302:7 17.030100
7 \$302:1 \$302:8 26.784800
*END

*D_NET \$303 2.899703
*CAP
1 \$303:1 2.888436
2 \$303:1 DataIn[2] 0.002407
3 \$303:1 line_state[0] 0.008860
*RES
1 \$303:1 \$303:2 82.156100
2 \$303:1 \$303:3 110.065100
3 \$303:1 \$303:4 34.925800
4 \$303:1 \$303:5 20.494200
5 \$303:1 \$303:6 48.068200
6 \$303:1 \$303:7 65.091900
7 \$303:1 \$303:8 65.705800
8 \$303:1 \$303:9 46.925300
*END

*D_NET \$305 0.838246
*CAP
1 \$305:1 0.826925
2 \$305:1 _114_ 0.003512
3 \$305:1 clk 0.000702
4 \$305:1 txdp 0.007107
*RES
1 \$305:1 \$305:2 16.527400
2 \$305:1 \$305:3 15.499600
3 \$305:1 \$305:4 10.523900
4 \$305:1 \$305:5 10.298700
5 \$305:1 \$305:6 13.857700
6 \$305:1 \$305:7 17.319100
*END

*D_NET \$306 0.973545
*CAP
1 \$306:1 0.973409
2 \$306:1 DataIn[1] 0.000136
*RES
1 \$306:1 \$306:2 17.105400
2 \$306:1 \$306:3 17.360700
3 \$306:1 \$306:4 16.870200
4 \$306:1 \$306:5 8.058000
5 \$306:1 \$306:6 13.771500
6 \$306:1 \$306:7 8.212700
*END

*D_NET \$307 1.347995
*CAP
1 \$307:1 1.338575
2 \$307:1 DataIn[1] 0.005619
3 \$307:1 rxdm 0.003801
*RES
1 \$307:1 \$307:2 19.166400
2 \$307:1 \$307:3 18.380300
3 \$307:1 \$307:4 30.960700
4 \$307:1 \$307:5 31.720400
5 \$307:1 \$307:6 37.481600
6 \$307:1 \$307:7 37.678600
*END

*D_NET \$308 2.919217
*CAP
1 \$308:1 2.868268
2 \$308:1 DataIn[2] 0.003801
3 \$308:1 DataOut[1] 0.008860
4 \$308:1 DataOut[3] 0.003801
5 \$308:1 DataOut[5] 0.014403
6 \$308:1 RxError 0.004879
7 \$308:1 _016_ 0.003801
8 \$308:1 _097_ 0.003801
9 \$308:1 clknet_3_4__leaf_clk 0.007603
*RES
1 \$308:1 \$308:2 82.156100
2 \$308:1 \$308:3 110.065100
3 \$308:1 \$308:4 34.925800
4 \$308:1 \$308:5 20.494200
5 \$308:1 \$308:6 48.068200
6 \$308:1 \$308:7 65.091900
7 \$308:1 \$308:8 65.705800
8 \$308:1 \$308:9 46.925300
*END

*D_NET \$309 0.834406
*CAP
1 \$309:1 0.830894
2 \$309:1 _054_ 0.003512
*RES
1 \$309:1 \$309:2 16.527400
2 \$309:1 \$309:3 15.499600
3 \$309:1 \$309:4 10.523900
4 \$309:1 \$309:5 10.298700
5 \$309:1 \$309:6 13.857700
6 \$309:1 \$309:7 17.319100
*END

*D_NET \$31 0.840888
*CAP
1 \$31:1 0.824195
2 \$31:1 DataIn[5] 0.016693
*RES
1 \$31:1 \$31:2 15.499600
2 \$31:1 \$31:3 16.527400
3 \$31:1 \$31:4 10.298700
4 \$31:1 \$31:5 13.857700
5 \$31:1 \$31:6 10.523900
6 \$31:1 \$31:7 17.319100
*END

*D_NET \$310 0.977216
*CAP
1 \$310:1 0.969614
2 \$310:1 TxValid 0.003801
3 \$310:1 _088_ 0.003801
*RES
1 \$310:1 \$310:2 17.105400
2 \$310:1 \$310:3 17.360700
3 \$310:1 \$310:4 16.870200
4 \$310:1 \$310:5 8.058000
5 \$310:1 \$310:6 13.771500
6 \$310:1 \$310:7 8.212700
*END

*D_NET \$311 1.344103
*CAP
1 \$311:1 1.342598
2 \$311:1 _088_ 0.001505
*RES
1 \$311:1 \$311:2 19.166400
2 \$311:1 \$311:3 18.380300
3 \$311:1 \$311:4 30.960700
4 \$311:1 \$311:5 31.720400
5 \$311:1 \$311:6 37.481600
6 \$311:1 \$311:7 37.678600
*END

*D_NET \$313 0.858210
*CAP
1 \$313:1 0.846807
2 \$313:1 next_byte[0] 0.003801
3 \$313:1 next_byte[4] 0.003801
4 \$313:1 next_byte[6] 0.003801
*RES
1 \$313:1 \$313:2 1.394800
2 \$313:1 \$313:3 0.963100
3 \$313:1 \$313:4 0.022500
4 \$313:1 \$313:5 0.486400
5 \$313:1 \$313:6 0.634600
6 \$313:1 \$313:7 0.306000
*END

*D_NET \$314 0.858210
*CAP
1 \$314:1 0.846807
2 \$314:1 _057_ 0.003801
3 \$314:1 _077_ 0.003801
4 \$314:1 tx_state[3] 0.003801
*RES
1 \$314:1 \$314:2 1.394800
2 \$314:1 \$314:3 0.963100
3 \$314:1 \$314:4 0.022500
4 \$314:1 \$314:5 0.486400
5 \$314:1 \$314:6 0.634600
6 \$314:1 \$314:7 0.306000
*END

*D_NET \$32 1.343363
*CAP
1 \$32:1 1.343363
*RES
1 \$32:1 \$32:2 37.481600
2 \$32:1 \$32:3 18.380300
3 \$32:1 \$32:4 19.166400
4 \$32:1 \$32:5 30.960700
5 \$32:1 \$32:6 31.720400
6 \$32:1 \$32:7 37.678600
*END

*D_NET \$320 2.140607
*CAP
1 \$320:1 2.119994
2 \$320:1 DataIn[2] 0.004532
3 \$320:1 _029_ 0.003801
4 \$320:1 _114_ 0.003801
5 \$320:1 clk 0.004678
6 \$320:1 txdp 0.003801
*RES
1 \$320:1 \$320:2 23.606500
2 \$320:1 \$320:3 63.310200
3 \$320:1 \$320:4 48.046900
4 \$320:1 \$320:5 13.008400
5 \$320:1 \$320:6 48.146100
6 \$320:1 \$320:7 47.329500
*END

*D_NET \$321 0.852745
*CAP
1 \$321:1 0.835599
2 \$321:1 DataIn[2] 0.005619
3 \$321:1 _114_ 0.005619
4 \$321:1 rx_shift[4] 0.002396
5 \$321:1 txdp 0.003512
*RES
1 \$321:1 \$321:2 27.599400
2 \$321:1 \$321:3 23.748600
3 \$321:1 \$321:4 22.372100
4 \$321:1 \$321:5 12.741300
5 \$321:1 \$321:6 22.897300
6 \$321:1 \$321:7 13.523900
*END

*D_NET \$323 2.170575
*CAP
1 \$323:1 2.089022
2 \$323:1 DataOut[3] 0.027971
3 \$323:1 DataOut[7] 0.006528
4 \$323:1 RxError 0.003801
5 \$323:1 TxValid 0.028151
6 \$323:1 _054_ 0.006363
7 \$323:1 _097_ 0.008739
*RES
1 \$323:1 \$323:2 23.606500
2 \$323:1 \$323:3 63.310200
3 \$323:1 \$323:4 48.046900
4 \$323:1 \$323:5 13.008400
5 \$323:1 \$323:6 48.146100
6 \$323:1 \$323:7 47.329500
*END

*D_NET \$324 0.850569
*CAP
1 \$324:1 0.837848
2 \$324:1 RxError 0.005619
3 \$324:1 _016_ 0.001483
4 \$324:1 _054_ 0.005619
*RES
1 \$324:1 \$324:2 27.599400
2 \$324:1 \$324:3 23.748600
3 \$324:1 \$324:4 22.372100
4 \$324:1 \$324:5 12.741300
5 \$324:1 \$324:6 22.897300
6 \$324:1 \$324:7 13.523900
*END

*D_NET \$33 2.130471
*CAP
1 \$33:1 2.130471
*RES
1 \$33:1 \$33:2 63.310200
2 \$33:1 \$33:3 48.046900
3 \$33:1 \$33:4 13.008400
4 \$33:1 \$33:5 23.606500
5 \$33:1 \$33:6 48.146100
6 \$33:1 \$33:7 47.329500
*END

*D_NET \$34 0.832679
*CAP
1 \$34:1 0.832679
*RES
1 \$34:1 \$34:2 15.499600
2 \$34:1 \$34:3 16.527400
3 \$34:1 \$34:4 10.298700
4 \$34:1 \$34:5 13.857700
5 \$34:1 \$34:6 10.523900
6 \$34:1 \$34:7 17.319100
*END

*D_NET \$35 1.343363
*CAP
1 \$35:1 1.343363
*RES
1 \$35:1 \$35:2 37.481600
2 \$35:1 \$35:3 18.380300
3 \$35:1 \$35:4 19.166400
4 \$35:1 \$35:5 30.960700
5 \$35:1 \$35:6 31.720400
6 \$35:1 \$35:7 37.678600
*END

*D_NET \$362 1.135564
*CAP
1 \$362:1 1.125653
2 \$362:1 destuff_out_valid 0.001240
3 \$362:1 rx_shift[7] 0.008671
*RES
1 \$362:1 \$362:2 17.797300
2 \$362:1 \$362:3 15.959000
3 \$362:1 \$362:4 10.608600
4 \$362:1 \$362:5 14.705300
5 \$362:1 \$362:6 9.230600
6 \$362:1 \$362:7 13.807700
*END

*D_NET \$363 1.214175
*CAP
1 \$363:1 1.213349
2 \$363:1 rx_shift[6] 0.000826
*RES
1 \$363:1 \$363:2 27.185500
2 \$363:1 \$363:3 22.143400
3 \$363:1 \$363:4 25.661100
4 \$363:1 \$363:5 31.800600
*END

*D_NET \$364 1.134428
*CAP
1 \$364:1 1.126826
2 \$364:1 destuff_out_valid 0.003801
3 \$364:1 rx_shift[6] 0.003801
*RES
1 \$364:1 \$364:2 17.797300
2 \$364:1 \$364:3 15.959000
3 \$364:1 \$364:4 10.608600
4 \$364:1 \$364:5 14.705300
5 \$364:1 \$364:6 9.230600
6 \$364:1 \$364:7 13.807700
*END

*D_NET \$365 1.215638
*CAP
1 \$365:1 1.211837
2 \$365:1 rx_shift[5] 0.003801
*RES
1 \$365:1 \$365:2 27.185500
2 \$365:1 \$365:3 22.143400
3 \$365:1 \$365:4 25.661100
4 \$365:1 \$365:5 31.800600
*END

*D_NET \$366 2.140238
*CAP
1 \$366:1 2.120377
2 \$366:1 _039_ 0.015183
3 \$366:1 destuff_out_valid 0.004678
*RES
1 \$366:1 \$366:2 63.310200
2 \$366:1 \$366:3 48.046900
3 \$366:1 \$366:4 13.008400
4 \$366:1 \$366:5 23.606500
5 \$366:1 \$366:6 48.146100
6 \$366:1 \$366:7 47.329500
*END

*D_NET \$367 1.134495
*CAP
1 \$367:1 1.126757
2 \$367:1 DataIn[2] 0.003801
3 \$367:1 _114_ 0.003937
*RES
1 \$367:1 \$367:2 17.797300
2 \$367:1 \$367:3 15.959000
3 \$367:1 \$367:4 10.608600
4 \$367:1 \$367:5 14.705300
5 \$367:1 \$367:6 9.230600
6 \$367:1 \$367:7 13.807700
*END

*D_NET \$368 1.221079
*CAP
1 \$368:1 1.206214
2 \$368:1 _114_ 0.003462
3 \$368:1 clk 0.003801
4 \$368:1 rx_shift[3] 0.003801
5 \$368:1 txdp 0.003801
*RES
1 \$368:1 \$368:2 27.185500
2 \$368:1 \$368:3 22.143400
3 \$368:1 \$368:4 25.661100
4 \$368:1 \$368:5 31.800600
*END

*D_NET \$37 2.130471
*CAP
1 \$37:1 2.130471
*RES
1 \$37:1 \$37:2 63.310200
2 \$37:1 \$37:3 48.046900
3 \$37:1 \$37:4 13.008400
4 \$37:1 \$37:5 23.606500
5 \$37:1 \$37:6 48.146100
6 \$37:1 \$37:7 47.329500
*END

*D_NET \$370 2.148324
*CAP
1 \$370:1 2.112020
2 \$370:1 _014_ 0.003801
3 \$370:1 _054_ 0.027971
4 \$370:1 _088_ 0.004532
*RES
1 \$370:1 \$370:2 63.310200
2 \$370:1 \$370:3 48.046900
3 \$370:1 \$370:4 13.008400
4 \$370:1 \$370:5 23.606500
5 \$370:1 \$370:6 48.146100
6 \$370:1 \$370:7 47.329500
*END

*D_NET \$374 1.184689
*CAP
1 \$374:1 1.142723
2 \$374:1 _078_ 0.038067
3 \$374:1 clknet_3_5__leaf_clk 0.003899
*RES
1 \$374:1 \$374:2 15.822300
2 \$374:1 \$374:3 15.591400
3 \$374:1 \$374:4 10.362400
4 \$374:1 \$374:5 14.938000
5 \$374:1 \$374:6 14.701800
6 \$374:1 \$374:7 10.820300
*END

*D_NET \$375 1.078738
*CAP
1 \$375:1 1.078738
*RES
1 \$375:1 \$375:2 42.378100
2 \$375:1 \$375:3 35.182000
3 \$375:1 \$375:4 32.052400
4 \$375:1 \$375:5 29.119900
*END

*D_NET \$376 1.075095
*CAP
1 \$376:1 1.071294
2 \$376:1 _116_ 0.003801
*RES
1 \$376:1 \$376:2 21.267000
2 \$376:1 \$376:3 13.242300
3 \$376:1 \$376:4 18.132100
4 \$376:1 \$376:5 16.491100
5 \$376:1 \$376:6 12.683900
*END

*D_NET \$378 1.083002
*CAP
1 \$378:1 1.063122
2 \$378:1 clknet_3_0__leaf_clk 0.007635
3 \$378:1 destuff_out_bit 0.004642
4 \$378:1 rx_shift[7] 0.007603
*RES
1 \$378:1 \$378:2 13.242300
2 \$378:1 \$378:3 21.267000
3 \$378:1 \$378:4 18.132100
4 \$378:1 \$378:5 12.683900
5 \$378:1 \$378:6 16.491100
*END

*D_NET \$38 0.832679
*CAP
1 \$38:1 0.832679
*RES
1 \$38:1 \$38:2 15.499600
2 \$38:1 \$38:3 16.527400
3 \$38:1 \$38:4 10.298700
4 \$38:1 \$38:5 13.857700
5 \$38:1 \$38:6 10.523900
6 \$38:1 \$38:7 17.319100
*END

*D_NET \$381 2.896031
*CAP
1 \$381:1 2.892230
2 \$381:1 clknet_3_0__leaf_clk 0.003801
*RES
1 \$381:1 \$381:2 82.156100
2 \$381:1 \$381:3 110.065100
3 \$381:1 \$381:4 34.925800
4 \$381:1 \$381:5 20.494200
5 \$381:1 \$381:6 48.068200
6 \$381:1 \$381:7 65.091900
7 \$381:1 \$381:8 65.705800
8 \$381:1 \$381:9 46.925300
*END

*D_NET \$382 0.844314
*CAP
1 \$382:1 0.844314
*RES
1 \$382:1 \$382:2 23.748600
2 \$382:1 \$382:3 27.599400
3 \$382:1 \$382:4 22.372100
4 \$382:1 \$382:5 12.741300
5 \$382:1 \$382:6 22.897300
6 \$382:1 \$382:7 13.523900
*END

*D_NET \$383 0.833024
*CAP
1 \$383:1 0.832322
2 \$383:1 destuff_out_valid 0.000702
*RES
1 \$383:1 \$383:2 15.499600
2 \$383:1 \$383:3 16.527400
3 \$383:1 \$383:4 10.298700
4 \$383:1 \$383:5 13.857700
5 \$383:1 \$383:6 10.523900
6 \$383:1 \$383:7 17.319100
*END

*D_NET \$384 0.973478
*CAP
1 \$384:1 0.973478
*RES
1 \$384:1 \$384:2 17.360700
2 \$384:1 \$384:3 17.105400
3 \$384:1 \$384:4 16.870200
4 \$384:1 \$384:5 8.058000
5 \$384:1 \$384:6 13.771500
6 \$384:1 \$384:7 8.212700
*END

*D_NET \$385 1.343363
*CAP
1 \$385:1 1.343363
*RES
1 \$385:1 \$385:2 37.481600
2 \$385:1 \$385:3 18.380300
3 \$385:1 \$385:4 19.166400
4 \$385:1 \$385:5 30.960700
5 \$385:1 \$385:6 31.720400
6 \$385:1 \$385:7 37.678600
*END

*D_NET \$386 1.077045
*CAP
1 \$386:1 1.069280
2 \$386:1 _111_ 0.003964
3 \$386:1 _129_ 0.003801
*RES
1 \$386:1 \$386:2 13.242300
2 \$386:1 \$386:3 21.267000
3 \$386:1 \$386:4 18.132100
4 \$386:1 \$386:5 12.683900
5 \$386:1 \$386:6 16.491100
*END

*D_NET \$388 2.900103
*CAP
1 \$388:1 2.888022
2 \$388:1 _054_ 0.003801
3 \$388:1 _088_ 0.003801
4 \$388:1 clknet_3_4__leaf_clk 0.004479
*RES
1 \$388:1 \$388:2 82.156100
2 \$388:1 \$388:3 110.065100
3 \$388:1 \$388:4 34.925800
4 \$388:1 \$388:5 20.494200
5 \$388:1 \$388:6 48.068200
6 \$388:1 \$388:7 65.091900
7 \$388:1 \$388:8 65.705800
8 \$388:1 \$388:9 46.925300
*END

*D_NET \$389 0.849126
*CAP
1 \$389:1 0.839341
2 \$389:1 _088_ 0.009785
*RES
1 \$389:1 \$389:2 23.748600
2 \$389:1 \$389:3 27.599400
3 \$389:1 \$389:4 22.372100
4 \$389:1 \$389:5 12.741300
5 \$389:1 \$389:6 22.897300
6 \$389:1 \$389:7 13.523900
*END

*D_NET \$39 1.345232
*CAP
1 \$39:1 1.341431
2 \$39:1 rst_n 0.003801
*RES
1 \$39:1 \$39:2 37.481600
2 \$39:1 \$39:3 18.380300
3 \$39:1 \$39:4 19.166400
4 \$39:1 \$39:5 30.960700
5 \$39:1 \$39:6 31.720400
6 \$39:1 \$39:7 37.678600
*END

*D_NET \$390 0.832679
*CAP
1 \$390:1 0.832679
*RES
1 \$390:1 \$390:2 15.499600
2 \$390:1 \$390:3 16.527400
3 \$390:1 \$390:4 10.298700
4 \$390:1 \$390:5 13.857700
5 \$390:1 \$390:6 10.523900
6 \$390:1 \$390:7 17.319100
*END

*D_NET \$391 0.980351
*CAP
1 \$391:1 0.966375
2 \$391:1 tx_state[3] 0.013976
*RES
1 \$391:1 \$391:2 17.360700
2 \$391:1 \$391:3 17.105400
3 \$391:1 \$391:4 16.870200
4 \$391:1 \$391:5 8.058000
5 \$391:1 \$391:6 13.771500
6 \$391:1 \$391:7 8.212700
*END

*D_NET \$392 1.347995
*CAP
1 \$392:1 1.338575
2 \$392:1 _057_ 0.003801
3 \$392:1 tx_state[3] 0.005619
*RES
1 \$392:1 \$392:2 37.481600
2 \$392:1 \$392:3 18.380300
3 \$392:1 \$392:4 19.166400
4 \$392:1 \$392:5 30.960700
5 \$392:1 \$392:6 31.720400
6 \$392:1 \$392:7 37.678600
*END

*D_NET \$394 0.284696
*CAP
1 \$394:1 0.279794
2 \$394:1 tx_bitidx[2] 0.004902
*RES
1 \$394:1 \$394:2 0.311400
2 \$394:1 \$394:3 0.300900
3 \$394:1 \$394:4 0.292000
4 \$394:1 \$394:5 0.300900
*END

*D_NET \$395 1.044916
*CAP
1 \$395:1 1.020217
2 \$395:1 _074_ 0.003801
3 \$395:1 clknet_3_5__leaf_clk 0.017097
4 \$395:1 tx_bitidx[2] 0.003801
*RES
1 \$395:1 \$395:2 1.039100
2 \$395:1 \$395:3 1.034100
3 \$395:1 \$395:4 0.501700
4 \$395:1 \$395:5 0.728400
5 \$395:1 \$395:6 0.531100
6 \$395:1 \$395:7 0.790700
*END

*D_NET \$396 0.250542
*CAP
1 \$396:1 0.246741
2 \$396:1 cur_byte[6] 0.003801
*RES
1 \$396:1 \$396:2 0.259800
2 \$396:1 \$396:3 0.254100
3 \$396:1 \$396:4 0.262700
4 \$396:1 \$396:5 0.256500
*END

*D_NET \$398 0.241742
*CAP
1 \$398:1 0.241347
2 \$398:1 cur_byte[0] 0.000395
*RES
1 \$398:1 \$398:2 0.252900
2 \$398:1 \$398:3 0.252900
3 \$398:1 \$398:4 0.256700
4 \$398:1 \$398:5 0.256700
*END

*D_NET \$399 3.135947
*CAP
1 \$399:1 3.132146
2 \$399:1 cur_byte[0] 0.003801
*RES
1 \$399:1 \$399:2 118.828700
2 \$399:1 \$399:3 38.647500
3 \$399:1 \$399:4 55.115800
4 \$399:1 \$399:5 139.105500
5 \$399:1 \$399:6 89.847000
6 \$399:1 \$399:7 84.628100
*END

*D_NET \$400 0.361186
*CAP
1 \$400:1 0.361186
*RES
1 \$400:1 \$400:2 0.399500
2 \$400:1 \$400:3 0.377400
3 \$400:1 \$400:4 0.382200
4 \$400:1 \$400:5 0.406100
*END

*D_NET \$42 2.146026
*CAP
1 \$42:1 2.114394
2 \$42:1 DataOut[4] 0.008739
3 \$42:1 DataOut[7] 0.003801
4 \$42:1 RxError 0.004532
5 \$42:1 _018_ 0.014560
*RES
1 \$42:1 \$42:2 63.310200
2 \$42:1 \$42:3 48.046900
3 \$42:1 \$42:4 13.008400
4 \$42:1 \$42:5 23.606500
5 \$42:1 \$42:6 48.146100
6 \$42:1 \$42:7 47.329500
*END

*D_NET \$420 0.860079
*CAP
1 \$420:1 0.844875
2 \$420:1 _052_ 0.003801
3 \$420:1 _054_ 0.003801
4 \$420:1 _078_ 0.003801
5 \$420:1 clknet_3_5__leaf_clk 0.003801
*RES
1 \$420:1 \$420:2 1.394800
2 \$420:1 \$420:3 0.963100
3 \$420:1 \$420:4 0.022500
4 \$420:1 \$420:5 0.486400
5 \$420:1 \$420:6 0.634600
6 \$420:1 \$420:7 0.306000
*END

*D_NET \$421 1.095344
*CAP
1 \$421:1 1.066669
2 \$421:1 _011_ 0.021365
3 \$421:1 _054_ 0.007310
*RES
1 \$421:1 \$421:2 0.943400
2 \$421:1 \$421:3 0.957600
3 \$421:1 \$421:4 0.452600
4 \$421:1 \$421:5 0.670100
5 \$421:1 \$421:6 0.449900
6 \$421:1 \$421:7 0.698900
*END

*D_NET \$43 0.838358
*CAP
1 \$43:1 0.826808
2 \$43:1 DataOut[4] 0.005931
3 \$43:1 DataOut[7] 0.005619
*RES
1 \$43:1 \$43:2 15.499600
2 \$43:1 \$43:3 16.527400
3 \$43:1 \$43:4 10.298700
4 \$43:1 \$43:5 13.857700
5 \$43:1 \$43:6 10.523900
6 \$43:1 \$43:7 17.319100
*END

*D_NET \$436 2.905795
*CAP
1 \$436:1 2.882139
2 \$436:1 _037_ 0.003801
3 \$436:1 clknet_3_0__leaf_clk 0.004479
4 \$436:1 destuff_out_bit 0.011575
5 \$436:1 rx_shift[7] 0.003801
*RES
1 \$436:1 \$436:2 82.156100
2 \$436:1 \$436:3 110.065100
3 \$436:1 \$436:4 34.925800
4 \$436:1 \$436:5 20.494200
5 \$436:1 \$436:6 48.068200
6 \$436:1 \$436:7 65.091900
7 \$436:1 \$436:8 65.705800
8 \$436:1 \$436:9 46.925300
*END

*D_NET \$437 2.901119
*CAP
1 \$437:1 2.886971
2 \$437:1 _040_ 0.003801
3 \$437:1 _111_ 0.010347
*RES
1 \$437:1 \$437:2 82.156100
2 \$437:1 \$437:3 110.065100
3 \$437:1 \$437:4 34.925800
4 \$437:1 \$437:5 20.494200
5 \$437:1 \$437:6 48.068200
6 \$437:1 \$437:7 65.091900
7 \$437:1 \$437:8 65.705800
8 \$437:1 \$437:9 46.925300
*END

*D_NET \$438 2.898256
*CAP
1 \$438:1 2.889932
2 \$438:1 clknet_3_1__leaf_clk 0.004523
3 \$438:1 line_state[0] 0.003801
*RES
1 \$438:1 \$438:2 82.156100
2 \$438:1 \$438:3 110.065100
3 \$438:1 \$438:4 34.925800
4 \$438:1 \$438:5 20.494200
5 \$438:1 \$438:6 48.068200
6 \$438:1 \$438:7 65.091900
7 \$438:1 \$438:8 65.705800
8 \$438:1 \$438:9 46.925300
*END

*D_NET \$439 2.910591
*CAP
1 \$439:1 2.877182
2 \$439:1 _011_ 0.003801
3 \$439:1 _074_ 0.014403
4 \$439:1 _078_ 0.003801
5 \$439:1 clknet_3_5__leaf_clk 0.007603
6 \$439:1 tx_bitidx[1] 0.003801
*RES
1 \$439:1 \$439:2 82.156100
2 \$439:1 \$439:3 110.065100
3 \$439:1 \$439:4 34.925800
4 \$439:1 \$439:5 20.494200
5 \$439:1 \$439:6 48.068200
6 \$439:1 \$439:7 65.091900
7 \$439:1 \$439:8 65.705800
8 \$439:1 \$439:9 46.925300
*END

*D_NET \$44 1.343363
*CAP
1 \$44:1 1.343363
*RES
1 \$44:1 \$44:2 37.481600
2 \$44:1 \$44:3 18.380300
3 \$44:1 \$44:4 19.166400
4 \$44:1 \$44:5 30.960700
5 \$44:1 \$44:6 31.720400
6 \$44:1 \$44:7 37.678600
*END

*D_NET \$441 0.832679
*CAP
1 \$441:1 0.832679
*RES
1 \$441:1 \$441:2 16.527400
2 \$441:1 \$441:3 15.499600
3 \$441:1 \$441:4 10.523900
4 \$441:1 \$441:5 10.298700
5 \$441:1 \$441:6 13.857700
6 \$441:1 \$441:7 17.319100
*END

*D_NET \$442 1.346593
*CAP
1 \$442:1 1.340024
2 \$442:1 _111_ 0.000950
3 \$442:1 destuff_out_valid 0.005619
*RES
1 \$442:1 \$442:2 19.166400
2 \$442:1 \$442:3 18.380300
3 \$442:1 \$442:4 30.960700
4 \$442:1 \$442:5 31.720400
5 \$442:1 \$442:6 37.481600
6 \$442:1 \$442:7 37.678600
*END

*D_NET \$443 0.312302
*CAP
1 \$443:1 0.312302
*RES
1 \$443:1 \$443:2 0.635800
2 \$443:1 \$443:3 0.035300
3 \$443:1 \$443:4 0.671100
*END

*D_NET \$444 0.833024
*CAP
1 \$444:1 0.832322
2 \$444:1 rx_shift[3] 0.000702
*RES
1 \$444:1 \$444:2 16.527400
2 \$444:1 \$444:3 15.499600
3 \$444:1 \$444:4 10.523900
4 \$444:1 \$444:5 10.298700
5 \$444:1 \$444:6 13.857700
6 \$444:1 \$444:7 17.319100
*END

*D_NET \$445 1.343363
*CAP
1 \$445:1 1.343363
*RES
1 \$445:1 \$445:2 19.166400
2 \$445:1 \$445:3 18.380300
3 \$445:1 \$445:4 30.960700
4 \$445:1 \$445:5 31.720400
5 \$445:1 \$445:6 37.481600
6 \$445:1 \$445:7 37.678600
*END

*D_NET \$446 0.835442
*CAP
1 \$446:1 0.829823
2 \$446:1 _114_ 0.005619
*RES
1 \$446:1 \$446:2 16.527400
2 \$446:1 \$446:3 15.499600
3 \$446:1 \$446:4 10.523900
4 \$446:1 \$446:5 10.298700
5 \$446:1 \$446:6 13.857700
6 \$446:1 \$446:7 17.319100
*END

*D_NET \$447 1.343830
*CAP
1 \$447:1 1.342880
2 \$447:1 DataIn[1] 0.000950
*RES
1 \$447:1 \$447:2 19.166400
2 \$447:1 \$447:3 18.380300
3 \$447:1 \$447:4 30.960700
4 \$447:1 \$447:5 31.720400
5 \$447:1 \$447:6 37.481600
6 \$447:1 \$447:7 37.678600
*END

*D_NET \$45 2.130471
*CAP
1 \$45:1 2.130471
*RES
1 \$45:1 \$45:2 63.310200
2 \$45:1 \$45:3 48.046900
3 \$45:1 \$45:4 13.008400
4 \$45:1 \$45:5 23.606500
5 \$45:1 \$45:6 48.146100
6 \$45:1 \$45:7 47.329500
*END

*D_NET \$450 0.313196
*CAP
1 \$450:1 0.311378
2 \$450:1 _095_ 0.001818
*RES
1 \$450:1 \$450:2 0.635800
2 \$450:1 \$450:3 0.035300
3 \$450:1 \$450:4 0.671100
*END

*D_NET \$452 2.903794
*CAP
1 \$452:1 2.884208
2 \$452:1 _052_ 0.003801
3 \$452:1 _054_ 0.003801
4 \$452:1 clknet_3_5__leaf_clk 0.011984
*RES
1 \$452:1 \$452:2 82.156100
2 \$452:1 \$452:3 110.065100
3 \$452:1 \$452:4 34.925800
4 \$452:1 \$452:5 20.494200
5 \$452:1 \$452:6 48.068200
6 \$452:1 \$452:7 65.091900
7 \$452:1 \$452:8 65.705800
8 \$452:1 \$452:9 46.925300
*END

*D_NET \$453 0.832679
*CAP
1 \$453:1 0.832679
*RES
1 \$453:1 \$453:2 16.527400
2 \$453:1 \$453:3 15.499600
3 \$453:1 \$453:4 10.523900
4 \$453:1 \$453:5 10.298700
5 \$453:1 \$453:6 13.857700
6 \$453:1 \$453:7 17.319100
*END

*D_NET \$454 1.343363
*CAP
1 \$454:1 1.343363
*RES
1 \$454:1 \$454:2 19.166400
2 \$454:1 \$454:3 18.380300
3 \$454:1 \$454:4 30.960700
4 \$454:1 \$454:5 31.720400
5 \$454:1 \$454:6 37.481600
6 \$454:1 \$454:7 37.678600
*END

*D_NET \$455 0.834406
*CAP
1 \$455:1 0.830894
2 \$455:1 _054_ 0.003512
*RES
1 \$455:1 \$455:2 16.527400
2 \$455:1 \$455:3 15.499600
3 \$455:1 \$455:4 10.523900
4 \$455:1 \$455:5 10.298700
5 \$455:1 \$455:6 13.857700
6 \$455:1 \$455:7 17.319100
*END

*D_NET \$456 1.343363
*CAP
1 \$456:1 1.343363
*RES
1 \$456:1 \$456:2 19.166400
2 \$456:1 \$456:3 18.380300
3 \$456:1 \$456:4 30.960700
4 \$456:1 \$456:5 31.720400
5 \$456:1 \$456:6 37.481600
6 \$456:1 \$456:7 37.678600
*END

*D_NET \$458 2.143341
*CAP
1 \$458:1 2.117170
2 \$458:1 _037_ 0.017432
3 \$458:1 rx_shift[7] 0.008739
*RES
1 \$458:1 \$458:2 23.606500
2 \$458:1 \$458:3 63.310200
3 \$458:1 \$458:4 48.046900
4 \$458:1 \$458:5 13.008400
5 \$458:1 \$458:6 48.146100
6 \$458:1 \$458:7 47.329500
*END

*D_NET \$459 0.844314
*CAP
1 \$459:1 0.844314
*RES
1 \$459:1 \$459:2 27.599400
2 \$459:1 \$459:3 23.748600
3 \$459:1 \$459:4 22.372100
4 \$459:1 \$459:5 12.741300
5 \$459:1 \$459:6 22.897300
6 \$459:1 \$459:7 13.523900
*END

*D_NET \$46 0.832679
*CAP
1 \$46:1 0.832679
*RES
1 \$46:1 \$46:2 15.499600
2 \$46:1 \$46:3 16.527400
3 \$46:1 \$46:4 10.298700
4 \$46:1 \$46:5 13.857700
5 \$46:1 \$46:6 10.523900
6 \$46:1 \$46:7 17.319100
*END

*D_NET \$460 0.980351
*CAP
1 \$460:1 0.966375
2 \$460:1 destuff_out_valid 0.013976
*RES
1 \$460:1 \$460:2 17.105400
2 \$460:1 \$460:3 17.360700
3 \$460:1 \$460:4 16.870200
4 \$460:1 \$460:5 8.058000
5 \$460:1 \$460:6 13.771500
6 \$460:1 \$460:7 8.212700
*END

*D_NET \$462 2.135982
*CAP
1 \$462:1 2.124776
2 \$462:1 _009_ 0.006528
3 \$462:1 rx_shift[3] 0.004678
*RES
1 \$462:1 \$462:2 23.606500
2 \$462:1 \$462:3 63.310200
3 \$462:1 \$462:4 48.046900
4 \$462:1 \$462:5 13.008400
5 \$462:1 \$462:6 48.146100
6 \$462:1 \$462:7 47.329500
*END

*D_NET \$463 0.845043
*CAP
1 \$463:1 0.843560
2 \$463:1 _040_ 0.001483
*RES
1 \$463:1 \$463:2 27.599400
2 \$463:1 \$463:3 23.748600
3 \$463:1 \$463:4 22.372100
4 \$463:1 \$463:5 12.741300
5 \$463:1 \$463:6 22.897300
6 \$463:1 \$463:7 13.523900
*END

*D_NET \$464 0.973478
*CAP
1 \$464:1 0.973478
*RES
1 \$464:1 \$464:2 17.105400
2 \$464:1 \$464:3 17.360700
3 \$464:1 \$464:4 16.870200
4 \$464:1 \$464:5 8.058000
5 \$464:1 \$464:6 13.771500
6 \$464:1 \$464:7 8.212700
*END

*D_NET \$465 2.157230
*CAP
1 \$465:1 2.102814
2 \$465:1 _031_ 0.003801
3 \$465:1 _114_ 0.003801
4 \$465:1 clk 0.028151
5 \$465:1 clknet_3_1__leaf_clk 0.004532
6 \$465:1 line_state[0] 0.007603
7 \$465:1 txdp 0.006528
*RES
1 \$465:1 \$465:2 23.606500
2 \$465:1 \$465:3 63.310200
3 \$465:1 \$465:4 48.046900
4 \$465:1 \$465:5 13.008400
5 \$465:1 \$465:6 48.146100
6 \$465:1 \$465:7 47.329500
*END

*D_NET \$466 0.848804
*CAP
1 \$466:1 0.839673
2 \$466:1 _114_ 0.003512
3 \$466:1 clknet_3_1__leaf_clk 0.005619
*RES
1 \$466:1 \$466:2 27.599400
2 \$466:1 \$466:3 23.748600
3 \$466:1 \$466:4 22.372100
4 \$466:1 \$466:5 12.741300
5 \$466:1 \$466:6 22.897300
6 \$466:1 \$466:7 13.523900
*END

*D_NET \$467 0.975347
*CAP
1 \$467:1 0.971546
2 \$467:1 clk 0.003801
*RES
1 \$467:1 \$467:2 17.105400
2 \$467:1 \$467:3 17.360700
3 \$467:1 \$467:4 16.870200
4 \$467:1 \$467:5 8.058000
5 \$467:1 \$467:6 13.771500
6 \$467:1 \$467:7 8.212700
*END

*D_NET \$47 1.343363
*CAP
1 \$47:1 1.343363
*RES
1 \$47:1 \$47:2 37.481600
2 \$47:1 \$47:3 18.380300
3 \$47:1 \$47:4 19.166400
4 \$47:1 \$47:5 30.960700
5 \$47:1 \$47:6 31.720400
6 \$47:1 \$47:7 37.678600
*END

*D_NET \$470 2.138554
*CAP
1 \$470:1 2.122118
2 \$470:1 _054_ 0.004532
3 \$470:1 clknet_3_5__leaf_clk 0.011904
*RES
1 \$470:1 \$470:2 23.606500
2 \$470:1 \$470:3 63.310200
3 \$470:1 \$470:4 48.046900
4 \$470:1 \$470:5 13.008400
5 \$470:1 \$470:6 48.146100
6 \$470:1 \$470:7 47.329500
*END

*D_NET \$471 0.847806
*CAP
1 \$471:1 0.840704
2 \$471:1 _052_ 0.001483
3 \$471:1 _054_ 0.005619
*RES
1 \$471:1 \$471:2 27.599400
2 \$471:1 \$471:3 23.748600
3 \$471:1 \$471:4 22.372100
4 \$471:1 \$471:5 12.741300
5 \$471:1 \$471:6 22.897300
6 \$471:1 \$471:7 13.523900
*END

*D_NET \$472 0.973478
*CAP
1 \$472:1 0.973478
*RES
1 \$472:1 \$472:2 17.105400
2 \$472:1 \$472:3 17.360700
3 \$472:1 \$472:4 16.870200
4 \$472:1 \$472:5 8.058000
5 \$472:1 \$472:6 13.771500
6 \$472:1 \$472:7 8.212700
*END

*D_NET \$473 2.149834
*CAP
1 \$473:1 2.110459
2 \$473:1 _054_ 0.003801
3 \$473:1 _078_ 0.007603
4 \$473:1 tx_bitidx[1] 0.027971
*RES
1 \$473:1 \$473:2 23.606500
2 \$473:1 \$473:3 63.310200
3 \$473:1 \$473:4 48.046900
4 \$473:1 \$473:5 13.008400
5 \$473:1 \$473:6 48.146100
6 \$473:1 \$473:7 47.329500
*END

*D_NET \$474 0.847077
*CAP
1 \$474:1 0.841458
2 \$474:1 _054_ 0.005619
*RES
1 \$474:1 \$474:2 27.599400
2 \$474:1 \$474:3 23.748600
3 \$474:1 \$474:4 22.372100
4 \$474:1 \$474:5 12.741300
5 \$474:1 \$474:6 22.897300
6 \$474:1 \$474:7 13.523900
*END

*D_NET \$475 0.975347
*CAP
1 \$475:1 0.971546
2 \$475:1 cur_byte[0] 0.003801
*RES
1 \$475:1 \$475:2 17.105400
2 \$475:1 \$475:3 17.360700
3 \$475:1 \$475:4 16.870200
4 \$475:1 \$475:5 8.058000
5 \$475:1 \$475:6 13.771500
6 \$475:1 \$475:7 8.212700
*END

*D_NET \$493 0.366109
*CAP
1 \$493:1 0.349122
2 \$493:1 _110_ 0.006220
3 \$493:1 _111_ 0.003165
4 \$493:1 _113_ 0.003801
5 \$493:1 rx_bitcnt[2] 0.003801
*RES
1 \$493:1 \$493:2 0.774800
2 \$493:1 \$493:3 0.774800
3 \$493:1 \$493:4 0.001000
*END

*D_NET \$513 2.153563
*CAP
1 \$513:1 2.106604
2 \$513:1 _024_ 0.003801
3 \$513:1 _110_ 0.003801
4 \$513:1 _111_ 0.028151
5 \$513:1 _113_ 0.004678
6 \$513:1 rx_bitcnt[2] 0.006528
*RES
1 \$513:1 \$513:2 63.310200
2 \$513:1 \$513:3 48.046900
3 \$513:1 \$513:4 13.008400
4 \$513:1 \$513:5 23.606500
5 \$513:1 \$513:6 48.146100
6 \$513:1 \$513:7 47.329500
*END

*D_NET \$514 0.360815
*CAP
1 \$514:1 0.354595
2 \$514:1 destuff_out_valid 0.006220
*RES
1 \$514:1 \$514:2 0.774800
2 \$514:1 \$514:3 0.774800
3 \$514:1 \$514:4 0.001000
*END

*D_NET \$516 1.130757
*CAP
1 \$516:1 1.130621
2 \$516:1 rx_shift[3] 0.000136
*RES
1 \$516:1 \$516:2 17.797300
2 \$516:1 \$516:3 15.959000
3 \$516:1 \$516:4 10.608600
4 \$516:1 \$516:5 14.705300
5 \$516:1 \$516:6 9.230600
6 \$516:1 \$516:7 13.807700
*END

*D_NET \$517 1.218714
*CAP
1 \$517:1 1.208657
2 \$517:1 _009_ 0.003801
3 \$517:1 destuff_out_valid 0.000826
4 \$517:1 rx_shift[3] 0.005430
*RES
1 \$517:1 \$517:2 27.185500
2 \$517:1 \$517:3 22.143400
3 \$517:1 \$517:4 25.661100
4 \$517:1 \$517:5 31.800600
*END

*D_NET \$518 1.133591
*CAP
1 \$518:1 1.127690
2 \$518:1 _114_ 0.000136
3 \$518:1 clknet_3_1__leaf_clk 0.003801
4 \$518:1 txdp 0.001964
*RES
1 \$518:1 \$518:2 17.797300
2 \$518:1 \$518:3 15.959000
3 \$518:1 \$518:4 10.608600
4 \$518:1 \$518:5 14.705300
5 \$518:1 \$518:6 9.230600
6 \$518:1 \$518:7 13.807700
*END

*D_NET \$519 1.239030
*CAP
1 \$519:1 1.187663
2 \$519:1 _114_ 0.005363
3 \$519:1 clk 0.042203
4 \$519:1 txdp 0.003801
*RES
1 \$519:1 \$519:2 27.185500
2 \$519:1 \$519:3 22.143400
3 \$519:1 \$519:4 25.661100
4 \$519:1 \$519:5 31.800600
*END

*D_NET \$523 1.598960
*CAP
1 \$523:1 1.595159
2 \$523:1 _077_ 0.003801
*RES
1 \$523:1 \$523:2 25.138500
2 \$523:1 \$523:3 29.406800
3 \$523:1 \$523:4 16.171900
4 \$523:1 \$523:5 27.961100
5 \$523:1 \$523:6 20.891400
6 \$523:1 \$523:7 26.784800
7 \$523:1 \$523:8 17.030100
*END

*D_NET \$526 2.897901
*CAP
1 \$526:1 2.890298
2 \$526:1 clknet_3_0__leaf_clk 0.007603
*RES
1 \$526:1 \$526:2 82.156100
2 \$526:1 \$526:3 110.065100
3 \$526:1 \$526:4 34.925800
4 \$526:1 \$526:5 20.494200
5 \$526:1 \$526:6 48.068200
6 \$526:1 \$526:7 65.091900
7 \$526:1 \$526:8 65.705800
8 \$526:1 \$526:9 46.925300
*END

*D_NET \$527 0.846183
*CAP
1 \$527:1 0.842382
2 \$527:1 _024_ 0.003801
*RES
1 \$527:1 \$527:2 23.748600
2 \$527:1 \$527:3 27.599400
3 \$527:1 \$527:4 22.372100
4 \$527:1 \$527:5 12.741300
5 \$527:1 \$527:6 22.897300
6 \$527:1 \$527:7 13.523900
*END

*D_NET \$528 0.848969
*CAP
1 \$528:1 0.815842
2 \$528:1 _024_ 0.003440
3 \$528:1 _110_ 0.028985
4 \$528:1 _113_ 0.000702
*RES
1 \$528:1 \$528:2 15.499600
2 \$528:1 \$528:3 16.527400
3 \$528:1 \$528:4 10.298700
4 \$528:1 \$528:5 13.857700
5 \$528:1 \$528:6 10.523900
6 \$528:1 \$528:7 17.319100
*END

*D_NET \$529 0.981259
*CAP
1 \$529:1 0.965435
2 \$529:1 _111_ 0.003801
3 \$529:1 _114_ 0.003801
4 \$529:1 rx_bitcnt[2] 0.008222
*RES
1 \$529:1 \$529:2 17.360700
2 \$529:1 \$529:3 17.105400
3 \$529:1 \$529:4 16.870200
4 \$529:1 \$529:5 8.058000
5 \$529:1 \$529:6 13.771500
6 \$529:1 \$529:7 8.212700
*END

*D_NET \$530 1.347995
*CAP
1 \$530:1 1.338575
2 \$530:1 _114_ 0.005619
3 \$530:1 destuff_out_bit 0.003801
*RES
1 \$530:1 \$530:2 37.481600
2 \$530:1 \$530:3 18.380300
3 \$530:1 \$530:4 19.166400
4 \$530:1 \$530:5 30.960700
5 \$530:1 \$530:6 31.720400
6 \$530:1 \$530:7 37.678600
*END

*D_NET \$532 1.404392
*CAP
1 \$532:1 1.380510
2 \$532:1 _133_ 0.010908
3 \$532:1 destuff_out_valid 0.003801
4 \$532:1 rx_bitcnt[0] 0.007603
5 \$532:1 rx_bitcnt[1] 0.001570
*RES
1 \$532:1 \$532:2 20.054900
2 \$532:1 \$532:3 14.337600
3 \$532:1 \$532:4 13.074400
4 \$532:1 \$532:5 17.436700
5 \$532:1 \$532:6 8.577400
6 \$532:1 \$532:7 9.326200
*END

*D_NET \$54 2.897900
*CAP
1 \$54:1 2.890298
2 \$54:1 _030_ 0.003801
3 \$54:1 clknet_3_0__leaf_clk 0.003801
*RES
1 \$54:1 \$54:2 65.705800
2 \$54:1 \$54:3 65.091900
3 \$54:1 \$54:4 48.068200
4 \$54:1 \$54:5 20.494200
5 \$54:1 \$54:6 34.925800
6 \$54:1 \$54:7 82.156100
7 \$54:1 \$54:8 110.065100
8 \$54:1 \$54:9 46.925300
*END

*D_NET \$551 0.316040
*CAP
1 \$551:1 0.308438
2 \$551:1 RxError 0.003801
3 \$551:1 _013_ 0.003801
*RES
1 \$551:1 \$551:2 0.635800
2 \$551:1 \$551:3 0.035300
3 \$551:1 \$551:4 0.671100
*END

*D_NET \$552 0.858210
*CAP
1 \$552:1 0.846807
2 \$552:1 _057_ 0.003801
3 \$552:1 _077_ 0.003801
4 \$552:1 next_byte[3] 0.003801
*RES
1 \$552:1 \$552:2 1.394800
2 \$552:1 \$552:3 0.963100
3 \$552:1 \$552:4 0.022500
4 \$552:1 \$552:5 0.486400
5 \$552:1 \$552:6 0.634600
6 \$552:1 \$552:7 0.306000
*END

*D_NET \$553 0.866612
*CAP
1 \$553:1 0.838122
2 \$553:1 _051_ 0.003801
3 \$553:1 _054_ 0.003801
4 \$553:1 _068_ 0.003801
5 \$553:1 _074_ 0.005684
6 \$553:1 _078_ 0.003801
7 \$553:1 clknet_3_5__leaf_clk 0.003801
8 \$553:1 tx_bitidx[1] 0.003801
*RES
1 \$553:1 \$553:2 1.394800
2 \$553:1 \$553:3 0.963100
3 \$553:1 \$553:4 0.022500
4 \$553:1 \$553:5 0.486400
5 \$553:1 \$553:6 0.634600
6 \$553:1 \$553:7 0.306000
*END

*D_NET \$56 0.845043
*CAP
1 \$56:1 0.843560
2 \$56:1 _030_ 0.001483
*RES
1 \$56:1 \$56:2 27.599400
2 \$56:1 \$56:3 23.748600
3 \$56:1 \$56:4 12.741300
4 \$56:1 \$56:5 22.372100
5 \$56:1 \$56:6 13.523900
6 \$56:1 \$56:7 22.897300
*END

*D_NET \$568 0.312302
*CAP
1 \$568:1 0.312302
*RES
1 \$568:1 \$568:2 0.635800
2 \$568:1 \$568:3 0.035300
3 \$568:1 \$568:4 0.671100
*END

*D_NET \$57 0.975347
*CAP
1 \$57:1 0.971546
2 \$57:1 DataIn[7] 0.003801
*RES
1 \$57:1 \$57:2 17.105400
2 \$57:1 \$57:3 17.360700
3 \$57:1 \$57:4 8.058000
4 \$57:1 \$57:5 16.870200
5 \$57:1 \$57:6 8.212700
6 \$57:1 \$57:7 13.771500
*END

*D_NET \$571 2.825843
*CAP
1 \$571:1 2.819173
2 \$571:1 destuff_out_bit 0.006670
*RES
1 \$571:1 \$571:2 11.304300
2 \$571:1 \$571:3 33.459400
3 \$571:1 \$571:4 36.539100
4 \$571:1 \$571:5 27.284300
5 \$571:1 \$571:6 19.428000
6 \$571:1 \$571:7 15.301800
7 \$571:1 \$571:8 16.518000
8 \$571:1 \$571:9 24.564700
9 \$571:1 \$571:10 23.157400
10 \$571:1 \$571:11 32.182600
11 \$571:1 \$571:12 21.768900
12 \$571:1 \$571:13 14.668000
13 \$571:1 \$571:14 30.301000
14 \$571:1 \$571:15 39.343800
*END

*D_NET \$573 0.318102
*CAP
1 \$573:1 0.306306
2 \$573:1 _134_ 0.007995
3 \$573:1 destuff_out_valid 0.003801
*RES
1 \$573:1 \$573:2 0.635800
2 \$573:1 \$573:3 0.035300
3 \$573:1 \$573:4 0.671100
*END

*D_NET \$577 2.900623
*CAP
1 \$577:1 2.887484
2 \$577:1 _111_ 0.003801
3 \$577:1 _130_ 0.001735
4 \$577:1 clknet_3_1__leaf_clk 0.007603
*RES
1 \$577:1 \$577:2 82.156100
2 \$577:1 \$577:3 110.065100
3 \$577:1 \$577:4 34.925800
4 \$577:1 \$577:5 20.494200
5 \$577:1 \$577:6 48.068200
6 \$577:1 \$577:7 65.091900
7 \$577:1 \$577:8 65.705800
8 \$577:1 \$577:9 46.925300
*END

*D_NET \$578 2.151703
*CAP
1 \$578:1 2.108527
2 \$578:1 _009_ 0.003801
3 \$578:1 _042_ 0.003801
4 \$578:1 _111_ 0.007603
5 \$578:1 _130_ 0.027971
*RES
1 \$578:1 \$578:2 23.606500
2 \$578:1 \$578:3 63.310200
3 \$578:1 \$578:4 48.046900
4 \$578:1 \$578:5 13.008400
5 \$578:1 \$578:6 48.146100
6 \$578:1 \$578:7 47.329500
*END

*D_NET \$579 0.844534
*CAP
1 \$579:1 0.844087
2 \$579:1 _042_ 0.000447
*RES
1 \$579:1 \$579:2 27.599400
2 \$579:1 \$579:3 23.748600
3 \$579:1 \$579:4 22.372100
4 \$579:1 \$579:5 12.741300
5 \$579:1 \$579:6 22.897300
6 \$579:1 \$579:7 13.523900
*END

*D_NET \$58 2.897900
*CAP
1 \$58:1 2.890298
2 \$58:1 _025_ 0.003801
3 \$58:1 clknet_3_0__leaf_clk 0.003801
*RES
1 \$58:1 \$58:2 82.156100
2 \$58:1 \$58:3 110.065100
3 \$58:1 \$58:4 34.925800
4 \$58:1 \$58:5 20.494200
5 \$58:1 \$58:6 48.068200
6 \$58:1 \$58:7 65.091900
7 \$58:1 \$58:8 65.705800
8 \$58:1 \$58:9 46.925300
*END

*D_NET \$580 0.832679
*CAP
1 \$580:1 0.832679
*RES
1 \$580:1 \$580:2 16.527400
2 \$580:1 \$580:3 15.499600
3 \$580:1 \$580:4 10.523900
4 \$580:1 \$580:5 10.298700
5 \$580:1 \$580:6 13.857700
6 \$580:1 \$580:7 17.319100
*END

*D_NET \$581 0.980418
*CAP
1 \$581:1 0.966306
2 \$581:1 _009_ 0.013976
3 \$581:1 destuff_out_valid 0.000136
*RES
1 \$581:1 \$581:2 17.105400
2 \$581:1 \$581:3 17.360700
3 \$581:1 \$581:4 16.870200
4 \$581:1 \$581:5 8.058000
5 \$581:1 \$581:6 13.771500
6 \$581:1 \$581:7 8.212700
*END

*D_NET \$582 1.348596
*CAP
1 \$582:1 1.337955
2 \$582:1 _009_ 0.005619
3 \$582:1 destuff_out_valid 0.005022
*RES
1 \$582:1 \$582:2 19.166400
2 \$582:1 \$582:3 18.380300
3 \$582:1 \$582:4 30.960700
4 \$582:1 \$582:5 31.720400
5 \$582:1 \$582:6 37.481600
6 \$582:1 \$582:7 37.678600
*END

*D_NET \$583 2.903925
*CAP
1 \$583:1 2.884073
2 \$583:1 _114_ 0.003801
3 \$583:1 clk 0.005619
4 \$583:1 clknet_3_1__leaf_clk 0.001572
5 \$583:1 txdp 0.008860
*RES
1 \$583:1 \$583:2 82.156100
2 \$583:1 \$583:3 110.065100
3 \$583:1 \$583:4 34.925800
4 \$583:1 \$583:5 20.494200
5 \$583:1 \$583:6 48.068200
6 \$583:1 \$583:7 65.091900
7 \$583:1 \$583:8 65.705800
8 \$583:1 \$583:9 46.925300
*END

*D_NET \$584 2.163508
*CAP
1 \$584:1 2.096326
2 \$584:1 _041_ 0.004532
3 \$584:1 clk 0.027971
4 \$584:1 rxdm 0.006528
5 \$584:1 txdm 0.028151
*RES
1 \$584:1 \$584:2 23.606500
2 \$584:1 \$584:3 63.310200
3 \$584:1 \$584:4 48.046900
4 \$584:1 \$584:5 13.008400
5 \$584:1 \$584:6 48.146100
6 \$584:1 \$584:7 47.329500
*END

*D_NET \$585 0.846183
*CAP
1 \$585:1 0.842382
2 \$585:1 _041_ 0.003801
*RES
1 \$585:1 \$585:2 27.599400
2 \$585:1 \$585:3 23.748600
3 \$585:1 \$585:4 22.372100
4 \$585:1 \$585:5 12.741300
5 \$585:1 \$585:6 22.897300
6 \$585:1 \$585:7 13.523900
*END

*D_NET \$586 0.832679
*CAP
1 \$586:1 0.832679
*RES
1 \$586:1 \$586:2 16.527400
2 \$586:1 \$586:3 15.499600
3 \$586:1 \$586:4 10.523900
4 \$586:1 \$586:5 10.298700
5 \$586:1 \$586:6 13.857700
6 \$586:1 \$586:7 17.319100
*END

*D_NET \$587 0.981291
*CAP
1 \$587:1 0.965404
2 \$587:1 DataIn[0] 0.006797
3 \$587:1 rxdp 0.003801
4 \$587:1 txdm 0.005289
*RES
1 \$587:1 \$587:2 17.105400
2 \$587:1 \$587:3 17.360700
3 \$587:1 \$587:4 16.870200
4 \$587:1 \$587:5 8.058000
5 \$587:1 \$587:6 13.771500
6 \$587:1 \$587:7 8.212700
*END

*D_NET \$588 1.352627
*CAP
1 \$588:1 1.333787
2 \$588:1 DataIn[0] 0.005619
3 \$588:1 TxReady 0.003801
4 \$588:1 line_state[1] 0.003801
5 \$588:1 rxdp 0.005619
*RES
1 \$588:1 \$588:2 19.166400
2 \$588:1 \$588:3 18.380300
3 \$588:1 \$588:4 30.960700
4 \$588:1 \$588:5 31.720400
5 \$588:1 \$588:6 37.481600
6 \$588:1 \$588:7 37.678600
*END

*D_NET \$591 2.907383
*CAP
1 \$591:1 2.880499
2 \$591:1 _013_ 0.003801
3 \$591:1 _054_ 0.003801
4 \$591:1 _088_ 0.004879
5 \$591:1 clknet_3_4__leaf_clk 0.014403
*RES
1 \$591:1 \$591:2 82.156100
2 \$591:1 \$591:3 110.065100
3 \$591:1 \$591:4 34.925800
4 \$591:1 \$591:5 20.494200
5 \$591:1 \$591:6 48.068200
6 \$591:1 \$591:7 65.091900
7 \$591:1 \$591:8 65.705800
8 \$591:1 \$591:9 46.925300
*END

*D_NET \$592 2.146879
*CAP
1 \$592:1 2.113512
2 \$592:1 DataOut[7] 0.003801
3 \$592:1 TxValid 0.003801
4 \$592:1 _013_ 0.017432
5 \$592:1 _054_ 0.004532
6 \$592:1 _088_ 0.003801
*RES
1 \$592:1 \$592:2 23.606500
2 \$592:1 \$592:3 63.310200
3 \$592:1 \$592:4 48.046900
4 \$592:1 \$592:5 13.008400
5 \$592:1 \$592:6 48.146100
6 \$592:1 \$592:7 47.329500
*END

*D_NET \$593 0.851567
*CAP
1 \$593:1 0.836817
2 \$593:1 DataOut[7] 0.003512
3 \$593:1 _054_ 0.005619
4 \$593:1 _088_ 0.005619
*RES
1 \$593:1 \$593:2 27.599400
2 \$593:1 \$593:3 23.748600
3 \$593:1 \$593:4 22.372100
4 \$593:1 \$593:5 12.741300
5 \$593:1 \$593:6 22.897300
6 \$593:1 \$593:7 13.523900
*END

*D_NET \$594 0.849695
*CAP
1 \$594:1 0.815091
2 \$594:1 DataOut[7] 0.005619
3 \$594:1 TxValid 0.028985
*RES
1 \$594:1 \$594:2 16.527400
2 \$594:1 \$594:3 15.499600
3 \$594:1 \$594:4 10.523900
4 \$594:1 \$594:5 10.298700
5 \$594:1 \$594:6 13.857700
6 \$594:1 \$594:7 17.319100
*END

*D_NET \$595 0.973478
*CAP
1 \$595:1 0.973478
*RES
1 \$595:1 \$595:2 17.105400
2 \$595:1 \$595:3 17.360700
3 \$595:1 \$595:4 16.870200
4 \$595:1 \$595:5 8.058000
5 \$595:1 \$595:6 13.771500
6 \$595:1 \$595:7 8.212700
*END

*D_NET \$596 1.343363
*CAP
1 \$596:1 1.343363
*RES
1 \$596:1 \$596:2 19.166400
2 \$596:1 \$596:3 18.380300
3 \$596:1 \$596:4 30.960700
4 \$596:1 \$596:5 31.720400
5 \$596:1 \$596:6 37.481600
6 \$596:1 \$596:7 37.678600
*END

*D_NET \$597 0.861948
*CAP
1 \$597:1 0.842943
2 \$597:1 _057_ 0.003801
3 \$597:1 _077_ 0.003801
4 \$597:1 next_byte[3] 0.003801
5 \$597:1 next_byte[5] 0.003801
6 \$597:1 tx_state[3] 0.003801
*RES
1 \$597:1 \$597:2 1.394800
2 \$597:1 \$597:3 0.963100
3 \$597:1 \$597:4 0.022500
4 \$597:1 \$597:5 0.486400
5 \$597:1 \$597:6 0.634600
6 \$597:1 \$597:7 0.306000
*END

*D_NET \$599 2.900388
*CAP
1 \$599:1 2.887727
2 \$599:1 _078_ 0.008860
3 \$599:1 clknet_3_5__leaf_clk 0.003801
*RES
1 \$599:1 \$599:2 82.156100
2 \$599:1 \$599:3 110.065100
3 \$599:1 \$599:4 34.925800
4 \$599:1 \$599:5 20.494200
5 \$599:1 \$599:6 48.068200
6 \$599:1 \$599:7 65.091900
7 \$599:1 \$599:8 65.705800
8 \$599:1 \$599:9 46.925300
*END

*D_NET \$60 0.845043
*CAP
1 \$60:1 0.843560
2 \$60:1 _025_ 0.001483
*RES
1 \$60:1 \$60:2 23.748600
2 \$60:1 \$60:3 27.599400
3 \$60:1 \$60:4 22.372100
4 \$60:1 \$60:5 12.741300
5 \$60:1 \$60:6 22.897300
6 \$60:1 \$60:7 13.523900
*END

*D_NET \$600 2.135387
*CAP
1 \$600:1 2.125389
2 \$600:1 _048_ 0.003801
3 \$600:1 _054_ 0.003801
4 \$600:1 clknet_3_5__leaf_clk 0.002396
*RES
1 \$600:1 \$600:2 23.606500
2 \$600:1 \$600:3 63.310200
3 \$600:1 \$600:4 48.046900
4 \$600:1 \$600:5 13.008400
5 \$600:1 \$600:6 48.146100
6 \$600:1 \$600:7 47.329500
*END

*D_NET \$601 0.846261
*CAP
1 \$601:1 0.842302
2 \$601:1 _048_ 0.000447
3 \$601:1 _054_ 0.003512
*RES
1 \$601:1 \$601:2 27.599400
2 \$601:1 \$601:3 23.748600
3 \$601:1 \$601:4 22.372100
4 \$601:1 \$601:5 12.741300
5 \$601:1 \$601:6 22.897300
6 \$601:1 \$601:7 13.523900
*END

*D_NET \$602 0.835442
*CAP
1 \$602:1 0.829823
2 \$602:1 _054_ 0.005619
*RES
1 \$602:1 \$602:2 16.527400
2 \$602:1 \$602:3 15.499600
3 \$602:1 \$602:4 10.523900
4 \$602:1 \$602:5 10.298700
5 \$602:1 \$602:6 13.857700
6 \$602:1 \$602:7 17.319100
*END

*D_NET \$603 0.973478
*CAP
1 \$603:1 0.973478
*RES
1 \$603:1 \$603:2 17.105400
2 \$603:1 \$603:3 17.360700
3 \$603:1 \$603:4 16.870200
4 \$603:1 \$603:5 8.058000
5 \$603:1 \$603:6 13.771500
6 \$603:1 \$603:7 8.212700
*END

*D_NET \$604 1.343830
*CAP
1 \$604:1 1.342880
2 \$604:1 cur_byte[5] 0.000950
*RES
1 \$604:1 \$604:2 19.166400
2 \$604:1 \$604:3 18.380300
3 \$604:1 \$604:4 30.960700
4 \$604:1 \$604:5 31.720400
5 \$604:1 \$604:6 37.481600
6 \$604:1 \$604:7 37.678600
*END

*D_NET \$62 0.973478
*CAP
1 \$62:1 0.973478
*RES
1 \$62:1 \$62:2 17.360700
2 \$62:1 \$62:3 17.105400
3 \$62:1 \$62:4 16.870200
4 \$62:1 \$62:5 8.058000
5 \$62:1 \$62:6 13.771500
6 \$62:1 \$62:7 8.212700
*END

*D_NET \$63 2.896031
*CAP
1 \$63:1 2.892230
2 \$63:1 _027_ 0.003801
*RES
1 \$63:1 \$63:2 82.156100
2 \$63:1 \$63:3 110.065100
3 \$63:1 \$63:4 34.925800
4 \$63:1 \$63:5 20.494200
5 \$63:1 \$63:6 48.068200
6 \$63:1 \$63:7 65.091900
7 \$63:1 \$63:8 65.705800
8 \$63:1 \$63:9 46.925300
*END

*D_NET \$65 0.845043
*CAP
1 \$65:1 0.843560
2 \$65:1 _027_ 0.001483
*RES
1 \$65:1 \$65:2 23.748600
2 \$65:1 \$65:3 27.599400
3 \$65:1 \$65:4 22.372100
4 \$65:1 \$65:5 12.741300
5 \$65:1 \$65:6 22.897300
6 \$65:1 \$65:7 13.523900
*END

*D_NET \$650 1.132559
*CAP
1 \$650:1 1.128758
2 \$650:1 destuff_out_valid 0.003801
*RES
1 \$650:1 \$650:2 17.797300
2 \$650:1 \$650:3 15.959000
3 \$650:1 \$650:4 10.608600
4 \$650:1 \$650:5 14.705300
5 \$650:1 \$650:6 9.230600
6 \$650:1 \$650:7 13.807700
*END

*D_NET \$651 1.138530
*CAP
1 \$651:1 1.122587
2 \$651:1 _114_ 0.003801
3 \$651:1 txdp 0.012142
*RES
1 \$651:1 \$651:2 17.797300
2 \$651:1 \$651:3 15.959000
3 \$651:1 \$651:4 10.608600
4 \$651:1 \$651:5 14.705300
5 \$651:1 \$651:6 9.230600
6 \$651:1 \$651:7 13.807700
*END

*D_NET \$653 2.897901
*CAP
1 \$653:1 2.890298
2 \$653:1 clknet_3_0__leaf_clk 0.007603
*RES
1 \$653:1 \$653:2 82.156100
2 \$653:1 \$653:3 110.065100
3 \$653:1 \$653:4 34.925800
4 \$653:1 \$653:5 20.494200
5 \$653:1 \$653:6 48.068200
6 \$653:1 \$653:7 65.091900
7 \$653:1 \$653:8 65.705800
8 \$653:1 \$653:9 46.925300
*END

*D_NET \$654 2.148052
*CAP
1 \$654:1 2.112299
2 \$654:1 _022_ 0.003801
3 \$654:1 _111_ 0.028151
4 \$654:1 rx_bitcnt[2] 0.003801
*RES
1 \$654:1 \$654:2 63.310200
2 \$654:1 \$654:3 48.046900
3 \$654:1 \$654:4 13.008400
4 \$654:1 \$654:5 23.606500
5 \$654:1 \$654:6 48.146100
6 \$654:1 \$654:7 47.329500
*END

*D_NET \$655 0.847910
*CAP
1 \$655:1 0.840597
2 \$655:1 _022_ 0.003801
3 \$655:1 rx_bitcnt[2] 0.003512
*RES
1 \$655:1 \$655:2 23.748600
2 \$655:1 \$655:3 27.599400
3 \$655:1 \$655:4 22.372100
4 \$655:1 \$655:5 12.741300
5 \$655:1 \$655:6 22.897300
6 \$655:1 \$655:7 13.523900
*END

*D_NET \$656 0.836401
*CAP
1 \$656:1 0.828830
2 \$656:1 _022_ 0.001952
3 \$656:1 rx_bitcnt[2] 0.005619
*RES
1 \$656:1 \$656:2 15.499600
2 \$656:1 \$656:3 16.527400
3 \$656:1 \$656:4 10.298700
4 \$656:1 \$656:5 13.857700
5 \$656:1 \$656:6 10.523900
6 \$656:1 \$656:7 17.319100
*END

*D_NET \$657 0.984156
*CAP
1 \$657:1 0.962442
2 \$657:1 _110_ 0.013976
3 \$657:1 _111_ 0.003801
4 \$657:1 _114_ 0.003801
5 \$657:1 u_destuffer\/ones[1] 0.000136
*RES
1 \$657:1 \$657:2 17.360700
2 \$657:1 \$657:3 17.105400
3 \$657:1 \$657:4 16.870200
4 \$657:1 \$657:5 8.058000
5 \$657:1 \$657:6 13.771500
6 \$657:1 \$657:7 8.212700
*END

*D_NET \$658 1.353367
*CAP
1 \$658:1 1.333022
2 \$658:1 _110_ 0.005619
3 \$658:1 _114_ 0.001505
4 \$658:1 destuff_out_bit 0.003801
5 \$658:1 u_destuffer\/ones[1] 0.005619
6 \$658:1 u_destuffer\/ones[2] 0.003801
*RES
1 \$658:1 \$658:2 37.481600
2 \$658:1 \$658:3 18.380300
3 \$658:1 \$658:4 19.166400
4 \$658:1 \$658:5 30.960700
5 \$658:1 \$658:6 31.720400
6 \$658:1 \$658:7 37.678600
*END

*D_NET \$659 2.901245
*CAP
1 \$659:1 2.886842
2 \$659:1 u_destuffer\/_20_ 0.014403
*RES
1 \$659:1 \$659:2 82.156100
2 \$659:1 \$659:3 110.065100
3 \$659:1 \$659:4 34.925800
4 \$659:1 \$659:5 20.494200
5 \$659:1 \$659:6 48.068200
6 \$659:1 \$659:7 65.091900
7 \$659:1 \$659:8 65.705800
8 \$659:1 \$659:9 46.925300
*END

*D_NET \$66 0.973478
*CAP
1 \$66:1 0.973478
*RES
1 \$66:1 \$66:2 17.360700
2 \$66:1 \$66:3 17.105400
3 \$66:1 \$66:4 16.870200
4 \$66:1 \$66:5 8.058000
5 \$66:1 \$66:6 13.771500
6 \$66:1 \$66:7 8.212700
*END

*D_NET \$660 2.132340
*CAP
1 \$660:1 2.128539
2 \$660:1 _046_ 0.003801
*RES
1 \$660:1 \$660:2 63.310200
2 \$660:1 \$660:3 48.046900
3 \$660:1 \$660:4 13.008400
4 \$660:1 \$660:5 23.606500
5 \$660:1 \$660:6 48.146100
6 \$660:1 \$660:7 47.329500
*END

*D_NET \$661 0.846183
*CAP
1 \$661:1 0.842382
2 \$661:1 _046_ 0.003801
*RES
1 \$661:1 \$661:2 23.748600
2 \$661:1 \$661:3 27.599400
3 \$661:1 \$661:4 22.372100
4 \$661:1 \$661:5 12.741300
5 \$661:1 \$661:6 22.897300
6 \$661:1 \$661:7 13.523900
*END

*D_NET \$662 0.832907
*CAP
1 \$662:1 0.832442
2 \$662:1 _046_ 0.000465
*RES
1 \$662:1 \$662:2 15.499600
2 \$662:1 \$662:3 16.527400
3 \$662:1 \$662:4 10.298700
4 \$662:1 \$662:5 13.857700
5 \$662:1 \$662:6 10.523900
6 \$662:1 \$662:7 17.319100
*END

*D_NET \$663 0.973478
*CAP
1 \$663:1 0.973478
*RES
1 \$663:1 \$663:2 17.360700
2 \$663:1 \$663:3 17.105400
3 \$663:1 \$663:4 16.870200
4 \$663:1 \$663:5 8.058000
5 \$663:1 \$663:6 13.771500
6 \$663:1 \$663:7 8.212700
*END

*D_NET \$664 1.343363
*CAP
1 \$664:1 1.343363
*RES
1 \$664:1 \$664:2 37.481600
2 \$664:1 \$664:3 18.380300
3 \$664:1 \$664:4 19.166400
4 \$664:1 \$664:5 30.960700
5 \$664:1 \$664:6 31.720400
6 \$664:1 \$664:7 37.678600
*END

*D_NET \$665 2.896031
*CAP
1 \$665:1 2.892230
2 \$665:1 clknet_3_0__leaf_clk 0.003801
*RES
1 \$665:1 \$665:2 82.156100
2 \$665:1 \$665:3 110.065100
3 \$665:1 \$665:4 34.925800
4 \$665:1 \$665:5 20.494200
5 \$665:1 \$665:6 48.068200
6 \$665:1 \$665:7 65.091900
7 \$665:1 \$665:8 65.705800
8 \$665:1 \$665:9 46.925300
*END

*D_NET \$666 2.132340
*CAP
1 \$666:1 2.128539
2 \$666:1 _045_ 0.003801
*RES
1 \$666:1 \$666:2 63.310200
2 \$666:1 \$666:3 48.046900
3 \$666:1 \$666:4 13.008400
4 \$666:1 \$666:5 23.606500
5 \$666:1 \$666:6 48.146100
6 \$666:1 \$666:7 47.329500
*END

*D_NET \$667 0.847361
*CAP
1 \$667:1 0.841164
2 \$667:1 _045_ 0.003801
3 \$667:1 clknet_3_0__leaf_clk 0.002396
*RES
1 \$667:1 \$667:2 23.748600
2 \$667:1 \$667:3 27.599400
3 \$667:1 \$667:4 22.372100
4 \$667:1 \$667:5 12.741300
5 \$667:1 \$667:6 22.897300
6 \$667:1 \$667:7 13.523900
*END

*D_NET \$668 0.833638
*CAP
1 \$668:1 0.831686
2 \$668:1 _045_ 0.001952
*RES
1 \$668:1 \$668:2 15.499600
2 \$668:1 \$668:3 16.527400
3 \$668:1 \$668:4 10.298700
4 \$668:1 \$668:5 13.857700
5 \$668:1 \$668:6 10.523900
6 \$668:1 \$668:7 17.319100
*END

*D_NET \$669 0.973478
*CAP
1 \$669:1 0.973478
*RES
1 \$669:1 \$669:2 17.360700
2 \$669:1 \$669:3 17.105400
3 \$669:1 \$669:4 16.870200
4 \$669:1 \$669:5 8.058000
5 \$669:1 \$669:6 13.771500
6 \$669:1 \$669:7 8.212700
*END

*D_NET \$67 2.897900
*CAP
1 \$67:1 2.890298
2 \$67:1 _035_ 0.003801
3 \$67:1 clknet_3_1__leaf_clk 0.003801
*RES
1 \$67:1 \$67:2 82.156100
2 \$67:1 \$67:3 110.065100
3 \$67:1 \$67:4 34.925800
4 \$67:1 \$67:5 20.494200
5 \$67:1 \$67:6 48.068200
6 \$67:1 \$67:7 65.091900
7 \$67:1 \$67:8 65.705800
8 \$67:1 \$67:9 46.925300
*END

*D_NET \$670 1.345699
*CAP
1 \$670:1 1.340948
2 \$670:1 _054_ 0.003801
3 \$670:1 rx_bitcnt[1] 0.000950
*RES
1 \$670:1 \$670:2 37.481600
2 \$670:1 \$670:3 18.380300
3 \$670:1 \$670:4 19.166400
4 \$670:1 \$670:5 30.960700
5 \$670:1 \$670:6 31.720400
6 \$670:1 \$670:7 37.678600
*END

*D_NET \$671 1.076964
*CAP
1 \$671:1 1.069362
2 \$671:1 _111_ 0.003801
3 \$671:1 _130_ 0.003801
*RES
1 \$671:1 \$671:2 13.242300
2 \$671:1 \$671:3 21.267000
3 \$671:1 \$671:4 18.132100
4 \$671:1 \$671:5 12.683900
5 \$671:1 \$671:6 16.491100
*END

*D_NET \$672 1.077378
*CAP
1 \$672:1 1.068935
2 \$672:1 _009_ 0.004642
3 \$672:1 _131_ 0.003801
*RES
1 \$672:1 \$672:2 13.242300
2 \$672:1 \$672:3 21.267000
3 \$672:1 \$672:4 18.132100
4 \$672:1 \$672:5 12.683900
5 \$672:1 \$672:6 16.491100
*END

*D_NET \$676 1.216044
*CAP
1 \$676:1 1.211417
2 \$676:1 rx_shift[1] 0.000826
3 \$676:1 rx_shift[2] 0.003801
*RES
1 \$676:1 \$676:2 27.185500
2 \$676:1 \$676:3 22.143400
3 \$676:1 \$676:4 25.661100
4 \$676:1 \$676:5 31.800600
*END

*D_NET \$678 1.233089
*CAP
1 \$678:1 1.193801
2 \$678:1 _041_ 0.030791
3 \$678:1 clk 0.007671
4 \$678:1 rx_shift[1] 0.000826
*RES
1 \$678:1 \$678:2 27.185500
2 \$678:1 \$678:3 22.143400
3 \$678:1 \$678:4 25.661100
4 \$678:1 \$678:5 31.800600
*END

*D_NET \$680 2.514372
*CAP
1 \$680:1 2.507194
2 \$680:1 clknet_0_clk 0.007178
*RES
1 \$680:1 \$680:2 36.428000
2 \$680:1 \$680:3 36.954100
3 \$680:1 \$680:4 17.679900
4 \$680:1 \$680:5 17.460200
5 \$680:1 \$680:6 25.810100
6 \$680:1 \$680:7 25.357500
7 \$680:1 \$680:8 17.460200
8 \$680:1 \$680:9 17.679900
9 \$680:1 \$680:10 36.428000
10 \$680:1 \$680:11 25.357500
11 \$680:1 \$680:12 25.810100
12 \$680:1 \$680:13 36.954100
*END

*D_NET \$681 2.898916
*CAP
1 \$681:1 2.889248
2 \$681:1 _054_ 0.003801
3 \$681:1 clknet_3_5__leaf_clk 0.005867
*RES
1 \$681:1 \$681:2 82.156100
2 \$681:1 \$681:3 110.065100
3 \$681:1 \$681:4 34.925800
4 \$681:1 \$681:5 20.494200
5 \$681:1 \$681:6 48.068200
6 \$681:1 \$681:7 65.091900
7 \$681:1 \$681:8 65.705800
8 \$681:1 \$681:9 46.925300
*END

*D_NET \$682 2.138363
*CAP
1 \$682:1 2.122315
2 \$682:1 _015_ 0.009520
3 \$682:1 tx_state[3] 0.006528
*RES
1 \$682:1 \$682:2 63.310200
2 \$682:1 \$682:3 48.046900
3 \$682:1 \$682:4 13.008400
4 \$682:1 \$682:5 23.606500
5 \$682:1 \$682:6 48.146100
6 \$682:1 \$682:7 47.329500
*END

*D_NET \$683 0.844314
*CAP
1 \$683:1 0.844314
*RES
1 \$683:1 \$683:2 23.748600
2 \$683:1 \$683:3 27.599400
3 \$683:1 \$683:4 22.372100
4 \$683:1 \$683:5 12.741300
5 \$683:1 \$683:6 22.897300
6 \$683:1 \$683:7 13.523900
*END

*D_NET \$684 0.832679
*CAP
1 \$684:1 0.832679
*RES
1 \$684:1 \$684:2 15.499600
2 \$684:1 \$684:3 16.527400
3 \$684:1 \$684:4 10.298700
4 \$684:1 \$684:5 13.857700
5 \$684:1 \$684:6 10.523900
6 \$684:1 \$684:7 17.319100
*END

*D_NET \$685 0.973478
*CAP
1 \$685:1 0.973478
*RES
1 \$685:1 \$685:2 17.360700
2 \$685:1 \$685:3 17.105400
3 \$685:1 \$685:4 16.870200
4 \$685:1 \$685:5 8.058000
5 \$685:1 \$685:6 13.771500
6 \$685:1 \$685:7 8.212700
*END

*D_NET \$686 1.345232
*CAP
1 \$686:1 1.341431
2 \$686:1 _057_ 0.003801
*RES
1 \$686:1 \$686:2 37.481600
2 \$686:1 \$686:3 18.380300
3 \$686:1 \$686:4 19.166400
4 \$686:1 \$686:5 30.960700
5 \$686:1 \$686:6 31.720400
6 \$686:1 \$686:7 37.678600
*END

*D_NET \$688 2.902625
*CAP
1 \$688:1 2.885417
2 \$688:1 _068_ 0.004879
3 \$688:1 _078_ 0.003801
4 \$688:1 clknet_3_5__leaf_clk 0.008528
*RES
1 \$688:1 \$688:2 82.156100
2 \$688:1 \$688:3 110.065100
3 \$688:1 \$688:4 34.925800
4 \$688:1 \$688:5 20.494200
5 \$688:1 \$688:6 48.068200
6 \$688:1 \$688:7 65.091900
7 \$688:1 \$688:8 65.705800
8 \$688:1 \$688:9 46.925300
*END

*D_NET \$689 2.155272
*CAP
1 \$689:1 2.104838
2 \$689:1 _051_ 0.004532
3 \$689:1 _054_ 0.003801
4 \$689:1 _068_ 0.003801
5 \$689:1 _078_ 0.027971
6 \$689:1 cur_byte[3] 0.006528
7 \$689:1 tx_bitidx[1] 0.003801
*RES
1 \$689:1 \$689:2 63.310200
2 \$689:1 \$689:3 48.046900
3 \$689:1 \$689:4 13.008400
4 \$689:1 \$689:5 23.606500
5 \$689:1 \$689:6 48.146100
6 \$689:1 \$689:7 47.329500
*END

*D_NET \$69 0.844314
*CAP
1 \$69:1 0.844314
*RES
1 \$69:1 \$69:2 23.748600
2 \$69:1 \$69:3 27.599400
3 \$69:1 \$69:4 22.372100
4 \$69:1 \$69:5 12.741300
5 \$69:1 \$69:6 22.897300
6 \$69:1 \$69:7 13.523900
*END

*D_NET \$690 0.854472
*CAP
1 \$690:1 0.833814
2 \$690:1 _051_ 0.003801
3 \$690:1 _054_ 0.005619
4 \$690:1 _068_ 0.005619
5 \$690:1 tx_bitidx[1] 0.005619
*RES
1 \$690:1 \$690:2 23.748600
2 \$690:1 \$690:3 27.599400
3 \$690:1 \$690:4 22.372100
4 \$690:1 \$690:5 12.741300
5 \$690:1 \$690:6 22.897300
6 \$690:1 \$690:7 13.523900
*END

*D_NET \$691 0.837169
*CAP
1 \$691:1 0.828038
2 \$691:1 _054_ 0.003512
3 \$691:1 tx_bitidx[1] 0.005619
*RES
1 \$691:1 \$691:2 15.499600
2 \$691:1 \$691:3 16.527400
3 \$691:1 \$691:4 10.298700
4 \$691:1 \$691:5 13.857700
5 \$691:1 \$691:6 10.523900
6 \$691:1 \$691:7 17.319100
*END

*D_NET \$692 0.973478
*CAP
1 \$692:1 0.973478
*RES
1 \$692:1 \$692:2 17.360700
2 \$692:1 \$692:3 17.105400
3 \$692:1 \$692:4 16.870200
4 \$692:1 \$692:5 8.058000
5 \$692:1 \$692:6 13.771500
6 \$692:1 \$692:7 8.212700
*END

*D_NET \$693 1.343363
*CAP
1 \$693:1 1.343363
*RES
1 \$693:1 \$693:2 37.481600
2 \$693:1 \$693:3 18.380300
3 \$693:1 \$693:4 19.166400
4 \$693:1 \$693:5 30.960700
5 \$693:1 \$693:6 31.720400
6 \$693:1 \$693:7 37.678600
*END

*D_NET \$70 0.973478
*CAP
1 \$70:1 0.973478
*RES
1 \$70:1 \$70:2 17.360700
2 \$70:1 \$70:3 17.105400
3 \$70:1 \$70:4 16.870200
4 \$70:1 \$70:5 8.058000
5 \$70:1 \$70:6 13.771500
6 \$70:1 \$70:7 8.212700
*END

*D_NET \$719 0.316966
*CAP
1 \$719:1 0.307481
2 \$719:1 _017_ 0.003801
3 \$719:1 _099_ 0.005684
*RES
1 \$719:1 \$719:2 0.635800
2 \$719:1 \$719:3 0.035300
3 \$719:1 \$719:4 0.671100
*END

*D_NET \$72 2.909686
*CAP
1 \$72:1 2.878118
2 \$72:1 DataIn[2] 0.014403
3 \$72:1 DataOut[3] 0.004027
4 \$72:1 DataOut[4] 0.001735
5 \$72:1 RxError 0.003801
6 \$72:1 _018_ 0.003801
7 \$72:1 clknet_3_4__leaf_clk 0.003801
*RES
1 \$72:1 \$72:2 82.156100
2 \$72:1 \$72:3 110.065100
3 \$72:1 \$72:4 34.925800
4 \$72:1 \$72:5 20.494200
5 \$72:1 \$72:6 48.068200
6 \$72:1 \$72:7 65.091900
7 \$72:1 \$72:8 65.705800
8 \$72:1 \$72:9 46.925300
*END

*D_NET \$720 0.858210
*CAP
1 \$720:1 0.846807
2 \$720:1 _054_ 0.003801
3 \$720:1 _071_ 0.003801
4 \$720:1 _078_ 0.003801
*RES
1 \$720:1 \$720:2 1.394800
2 \$720:1 \$720:3 0.963100
3 \$720:1 \$720:4 0.022500
4 \$720:1 \$720:5 0.486400
5 \$720:1 \$720:6 0.634600
6 \$720:1 \$720:7 0.306000
*END

*D_NET \$748 3.145216
*CAP
1 \$748:1 3.122564
2 \$748:1 _054_ 0.003801
3 \$748:1 _068_ 0.003801
4 \$748:1 tx_bitidx[1] 0.015050
*RES
1 \$748:1 \$748:2 38.647500
2 \$748:1 \$748:3 118.828700
3 \$748:1 \$748:4 139.105500
4 \$748:1 \$748:5 55.115800
5 \$748:1 \$748:6 89.847000
6 \$748:1 \$748:7 84.628100
*END

*D_NET \$75 0.851889
*CAP
1 \$75:1 0.836485
2 \$75:1 DataOut[7] 0.005619
3 \$75:1 RxError 0.009785
*RES
1 \$75:1 \$75:2 23.748600
2 \$75:1 \$75:3 27.599400
3 \$75:1 \$75:4 22.372100
4 \$75:1 \$75:5 12.741300
5 \$75:1 \$75:6 22.897300
6 \$75:1 \$75:7 13.523900
*END

*D_NET \$751 1.454377
*CAP
1 \$751:1 1.450576
2 \$751:1 u_destuffer\/_20_ 0.003801
*RES
1 \$751:1 \$751:2 1.386700
2 \$751:1 \$751:3 1.761200
3 \$751:1 \$751:4 1.073700
4 \$751:1 \$751:5 0.812000
5 \$751:1 \$751:6 0.899200
6 \$751:1 \$751:7 0.611900
*END

*D_NET \$752 2.897901
*CAP
1 \$752:1 2.890298
2 \$752:1 clknet_3_0__leaf_clk 0.007603
*RES
1 \$752:1 \$752:2 82.156100
2 \$752:1 \$752:3 110.065100
3 \$752:1 \$752:4 34.925800
4 \$752:1 \$752:5 20.494200
5 \$752:1 \$752:6 48.068200
6 \$752:1 \$752:7 65.091900
7 \$752:1 \$752:8 65.705800
8 \$752:1 \$752:9 46.925300
*END

*D_NET \$753 2.136561
*CAP
1 \$753:1 2.124176
2 \$753:1 _054_ 0.006528
3 \$753:1 u_destuffer\/_04_ 0.005857
*RES
1 \$753:1 \$753:2 23.606500
2 \$753:1 \$753:3 63.310200
3 \$753:1 \$753:4 48.046900
4 \$753:1 \$753:5 13.008400
5 \$753:1 \$753:6 48.146100
6 \$753:1 \$753:7 47.329500
*END

*D_NET \$754 0.844314
*CAP
1 \$754:1 0.844314
*RES
1 \$754:1 \$754:2 27.599400
2 \$754:1 \$754:3 23.748600
3 \$754:1 \$754:4 22.372100
4 \$754:1 \$754:5 12.741300
5 \$754:1 \$754:6 22.897300
6 \$754:1 \$754:7 13.523900
*END

*D_NET \$755 0.832679
*CAP
1 \$755:1 0.832679
*RES
1 \$755:1 \$755:2 16.527400
2 \$755:1 \$755:3 15.499600
3 \$755:1 \$755:4 10.523900
4 \$755:1 \$755:5 10.298700
5 \$755:1 \$755:6 13.857700
6 \$755:1 \$755:7 17.319100
*END

*D_NET \$756 0.973478
*CAP
1 \$756:1 0.973478
*RES
1 \$756:1 \$756:2 17.105400
2 \$756:1 \$756:3 17.360700
3 \$756:1 \$756:4 16.870200
4 \$756:1 \$756:5 8.058000
5 \$756:1 \$756:6 13.771500
6 \$756:1 \$756:7 8.212700
*END

*D_NET \$757 1.343363
*CAP
1 \$757:1 1.343363
*RES
1 \$757:1 \$757:2 19.166400
2 \$757:1 \$757:3 18.380300
3 \$757:1 \$757:4 30.960700
4 \$757:1 \$757:5 31.720400
5 \$757:1 \$757:6 37.481600
6 \$757:1 \$757:7 37.678600
*END

*D_NET \$758 2.902257
*CAP
1 \$758:1 2.885795
2 \$758:1 _009_ 0.008860
3 \$758:1 _043_ 0.003801
4 \$758:1 clknet_3_1__leaf_clk 0.003801
*RES
1 \$758:1 \$758:2 82.156100
2 \$758:1 \$758:3 110.065100
3 \$758:1 \$758:4 34.925800
4 \$758:1 \$758:5 20.494200
5 \$758:1 \$758:6 48.068200
6 \$758:1 \$758:7 65.091900
7 \$758:1 \$758:8 65.705800
8 \$758:1 \$758:9 46.925300
*END

*D_NET \$759 2.132340
*CAP
1 \$759:1 2.128539
2 \$759:1 clknet_3_1__leaf_clk 0.003801
*RES
1 \$759:1 \$759:2 23.606500
2 \$759:1 \$759:3 63.310200
3 \$759:1 \$759:4 48.046900
4 \$759:1 \$759:5 13.008400
5 \$759:1 \$759:6 48.146100
6 \$759:1 \$759:7 47.329500
*END

*D_NET \$76 0.973478
*CAP
1 \$76:1 0.973478
*RES
1 \$76:1 \$76:2 17.360700
2 \$76:1 \$76:3 17.105400
3 \$76:1 \$76:4 16.870200
4 \$76:1 \$76:5 8.058000
5 \$76:1 \$76:6 13.771500
6 \$76:1 \$76:7 8.212700
*END

*D_NET \$760 0.847077
*CAP
1 \$760:1 0.841458
2 \$760:1 clknet_3_1__leaf_clk 0.005619
*RES
1 \$760:1 \$760:2 27.599400
2 \$760:1 \$760:3 23.748600
3 \$760:1 \$760:4 22.372100
4 \$760:1 \$760:5 12.741300
5 \$760:1 \$760:6 22.897300
6 \$760:1 \$760:7 13.523900
*END

*D_NET \$761 0.834406
*CAP
1 \$761:1 0.830894
2 \$761:1 clknet_3_1__leaf_clk 0.003512
*RES
1 \$761:1 \$761:2 16.527400
2 \$761:1 \$761:3 15.499600
3 \$761:1 \$761:4 10.523900
4 \$761:1 \$761:5 10.298700
5 \$761:1 \$761:6 13.857700
6 \$761:1 \$761:7 17.319100
*END

*D_NET \$762 0.973478
*CAP
1 \$762:1 0.973478
*RES
1 \$762:1 \$762:2 17.105400
2 \$762:1 \$762:3 17.360700
3 \$762:1 \$762:4 16.870200
4 \$762:1 \$762:5 8.058000
5 \$762:1 \$762:6 13.771500
6 \$762:1 \$762:7 8.212700
*END

*D_NET \$763 1.343363
*CAP
1 \$763:1 1.343363
*RES
1 \$763:1 \$763:2 19.166400
2 \$763:1 \$763:3 18.380300
3 \$763:1 \$763:4 30.960700
4 \$763:1 \$763:5 31.720400
5 \$763:1 \$763:6 37.481600
6 \$763:1 \$763:7 37.678600
*END

*D_NET \$764 2.910591
*CAP
1 \$764:1 2.877182
2 \$764:1 _033_ 0.003801
3 \$764:1 clknet_3_1__leaf_clk 0.011404
4 \$764:1 line_state[0] 0.014403
5 \$764:1 txdp 0.003801
*RES
1 \$764:1 \$764:2 82.156100
2 \$764:1 \$764:3 110.065100
3 \$764:1 \$764:4 34.925800
4 \$764:1 \$764:5 20.494200
5 \$764:1 \$764:6 48.068200
6 \$764:1 \$764:7 65.091900
7 \$764:1 \$764:8 65.705800
8 \$764:1 \$764:9 46.925300
*END

*D_NET \$765 2.155244
*CAP
1 \$765:1 2.104868
2 \$765:1 _033_ 0.012849
3 \$765:1 _041_ 0.003801
4 \$765:1 clk 0.003801
5 \$765:1 clknet_3_4__leaf_clk 0.023739
6 \$765:1 txdp 0.006186
*RES
1 \$765:1 \$765:2 23.606500
2 \$765:1 \$765:3 63.310200
3 \$765:1 \$765:4 48.046900
4 \$765:1 \$765:5 13.008400
5 \$765:1 \$765:6 48.146100
6 \$765:1 \$765:7 47.329500
*END

*D_NET \$766 0.853616
*CAP
1 \$766:1 0.834700
2 \$766:1 _041_ 0.003512
3 \$766:1 clk 0.005619
4 \$766:1 txdp 0.009785
*RES
1 \$766:1 \$766:2 27.599400
2 \$766:1 \$766:3 23.748600
3 \$766:1 \$766:4 22.372100
4 \$766:1 \$766:5 12.741300
5 \$766:1 \$766:6 22.897300
6 \$766:1 \$766:7 13.523900
*END

*D_NET \$767 0.837169
*CAP
1 \$767:1 0.828038
2 \$767:1 _041_ 0.005619
3 \$767:1 clk 0.003512
*RES
1 \$767:1 \$767:2 16.527400
2 \$767:1 \$767:3 15.499600
3 \$767:1 \$767:4 10.523900
4 \$767:1 \$767:5 10.298700
5 \$767:1 \$767:6 13.857700
6 \$767:1 \$767:7 17.319100
*END

*D_NET \$768 0.973545
*CAP
1 \$768:1 0.973409
2 \$768:1 rxdm 0.000136
*RES
1 \$768:1 \$768:2 17.105400
2 \$768:1 \$768:3 17.360700
3 \$768:1 \$768:4 16.870200
4 \$768:1 \$768:5 8.058000
5 \$768:1 \$768:6 13.771500
6 \$768:1 \$768:7 8.212700
*END

*D_NET \$769 1.347995
*CAP
1 \$769:1 1.338575
2 \$769:1 rxdm 0.005619
3 \$769:1 txdm 0.003801
*RES
1 \$769:1 \$769:2 19.166400
2 \$769:1 \$769:3 18.380300
3 \$769:1 \$769:4 30.960700
4 \$769:1 \$769:5 31.720400
5 \$769:1 \$769:6 37.481600
6 \$769:1 \$769:7 37.678600
*END

*D_NET \$77 2.896031
*CAP
1 \$77:1 2.892230
2 \$77:1 _012_ 0.003801
*RES
1 \$77:1 \$77:2 82.156100
2 \$77:1 \$77:3 110.065100
3 \$77:1 \$77:4 34.925800
4 \$77:1 \$77:5 20.494200
5 \$77:1 \$77:6 48.068200
6 \$77:1 \$77:7 65.091900
7 \$77:1 \$77:8 65.705800
8 \$77:1 \$77:9 46.925300
*END

*D_NET \$770 2.899769
*CAP
1 \$770:1 2.888366
2 \$770:1 _017_ 0.003801
3 \$770:1 _099_ 0.003801
4 \$770:1 clknet_3_4__leaf_clk 0.003801
*RES
1 \$770:1 \$770:2 82.156100
2 \$770:1 \$770:3 110.065100
3 \$770:1 \$770:4 34.925800
4 \$770:1 \$770:5 20.494200
5 \$770:1 \$770:6 48.068200
6 \$770:1 \$770:7 65.091900
7 \$770:1 \$770:8 65.705800
8 \$770:1 \$770:9 46.925300
*END

*D_NET \$771 2.151051
*CAP
1 \$771:1 2.109201
2 \$771:1 DataOut[7] 0.003801
3 \$771:1 TxValid 0.004678
4 \$771:1 _088_ 0.003801
5 \$771:1 _099_ 0.007603
6 \$771:1 _123_ 0.003801
7 \$771:1 clknet_0_clk 0.018166
*RES
1 \$771:1 \$771:2 23.606500
2 \$771:1 \$771:3 63.310200
3 \$771:1 \$771:4 48.046900
4 \$771:1 \$771:5 13.008400
5 \$771:1 \$771:6 48.146100
6 \$771:1 \$771:7 47.329500
*END

*D_NET \$772 0.848804
*CAP
1 \$772:1 0.839673
2 \$772:1 _088_ 0.005619
3 \$772:1 _123_ 0.003512
*RES
1 \$772:1 \$772:2 27.599400
2 \$772:1 \$772:3 23.748600
3 \$772:1 \$772:4 22.372100
4 \$772:1 \$772:5 12.741300
5 \$772:1 \$772:6 22.897300
6 \$772:1 \$772:7 13.523900
*END

*D_NET \$773 0.851767
*CAP
1 \$773:1 0.812949
2 \$773:1 DataOut[7] 0.028985
3 \$773:1 TxValid 0.000702
4 \$773:1 _088_ 0.003512
5 \$773:1 _123_ 0.005619
*RES
1 \$773:1 \$773:2 16.527400
2 \$773:1 \$773:3 15.499600
3 \$773:1 \$773:4 10.523900
4 \$773:1 \$773:5 10.298700
5 \$773:1 \$773:6 13.857700
6 \$773:1 \$773:7 17.319100
*END

*D_NET \$774 0.975347
*CAP
1 \$774:1 0.971546
2 \$774:1 clknet_0_clk 0.003801
*RES
1 \$774:1 \$774:2 17.105400
2 \$774:1 \$774:3 17.360700
3 \$774:1 \$774:4 16.870200
4 \$774:1 \$774:5 8.058000
5 \$774:1 \$774:6 13.771500
6 \$774:1 \$774:7 8.212700
*END

*D_NET \$775 1.350201
*CAP
1 \$775:1 1.336296
2 \$775:1 clknet_3_4__leaf_clk 0.003801
3 \$775:1 next_byte[1] 0.010104
*RES
1 \$775:1 \$775:2 19.166400
2 \$775:1 \$775:3 18.380300
3 \$775:1 \$775:4 30.960700
4 \$775:1 \$775:5 31.720400
5 \$775:1 \$775:6 37.481600
6 \$775:1 \$775:7 37.678600
*END

*D_NET \$777 0.312302
*CAP
1 \$777:1 0.312302
*RES
1 \$777:1 \$777:2 0.635800
2 \$777:1 \$777:3 0.035300
3 \$777:1 \$777:4 0.671100
*END

*D_NET \$779 0.858210
*CAP
1 \$779:1 0.846807
2 \$779:1 _057_ 0.003801
3 \$779:1 _077_ 0.003801
4 \$779:1 tx_state[3] 0.003801
*RES
1 \$779:1 \$779:2 1.394800
2 \$779:1 \$779:3 0.963100
3 \$779:1 \$779:4 0.022500
4 \$779:1 \$779:5 0.486400
5 \$779:1 \$779:6 0.634600
6 \$779:1 \$779:7 0.306000
*END

*D_NET \$780 2.510842
*CAP
1 \$780:1 2.510842
*RES
1 \$780:1 \$780:2 36.428000
2 \$780:1 \$780:3 36.954100
3 \$780:1 \$780:4 17.679900
4 \$780:1 \$780:5 25.810100
5 \$780:1 \$780:6 17.460200
6 \$780:1 \$780:7 25.357500
7 \$780:1 \$780:8 17.460200
8 \$780:1 \$780:9 17.679900
9 \$780:1 \$780:10 36.428000
10 \$780:1 \$780:11 25.357500
11 \$780:1 \$780:12 25.810100
12 \$780:1 \$780:13 36.954100
*END

*D_NET \$781 0.854472
*CAP
1 \$781:1 0.850671
2 \$781:1 _078_ 0.003801
*RES
1 \$781:1 \$781:2 1.394800
2 \$781:1 \$781:3 0.963100
3 \$781:1 \$781:4 0.022500
4 \$781:1 \$781:5 0.486400
5 \$781:1 \$781:6 0.634600
6 \$781:1 \$781:7 0.306000
*END

*D_NET \$783 0.284154
*CAP
1 \$783:1 0.280353
2 \$783:1 _071_ 0.003801
*RES
1 \$783:1 \$783:2 0.300900
2 \$783:1 \$783:3 0.311400
3 \$783:1 \$783:4 0.300900
4 \$783:1 \$783:5 0.292000
*END

*D_NET \$784 1.048932
*CAP
1 \$784:1 1.016067
2 \$784:1 _071_ 0.008087
3 \$784:1 tx_bitidx[0] 0.019483
4 \$784:1 tx_bitidx[2] 0.005295
*RES
1 \$784:1 \$784:2 1.039100
2 \$784:1 \$784:3 1.034100
3 \$784:1 \$784:4 0.728400
4 \$784:1 \$784:5 0.501700
5 \$784:1 \$784:6 0.790700
6 \$784:1 \$784:7 0.531100
*END

*D_NET \$785 0.251677
*CAP
1 \$785:1 0.245568
2 \$785:1 _071_ 0.003801
3 \$785:1 tx_bitidx[2] 0.002308
*RES
1 \$785:1 \$785:2 0.254100
2 \$785:1 \$785:3 0.259800
3 \$785:1 \$785:4 0.262700
4 \$785:1 \$785:5 0.256500
*END

*D_NET \$786 1.181411
*CAP
1 \$786:1 1.146109
2 \$786:1 _073_ 0.007068
3 \$786:1 _075_ 0.024433
4 \$786:1 tx_bitidx[0] 0.003801
*RES
1 \$786:1 \$786:2 15.822300
2 \$786:1 \$786:3 15.591400
3 \$786:1 \$786:4 10.820300
4 \$786:1 \$786:5 10.362400
5 \$786:1 \$786:6 14.938000
6 \$786:1 \$786:7 14.701800
*END

*D_NET \$787 1.078738
*CAP
1 \$787:1 1.078738
*RES
1 \$787:1 \$787:2 42.378100
2 \$787:1 \$787:3 35.182000
3 \$787:1 \$787:4 32.052400
4 \$787:1 \$787:5 29.119900
*END

*D_NET \$788 1.094804
*CAP
1 \$788:1 1.067228
2 \$788:1 _078_ 0.011372
3 \$788:1 clknet_3_5__leaf_clk 0.016204
*RES
1 \$788:1 \$788:2 0.943400
2 \$788:1 \$788:3 0.957600
3 \$788:1 \$788:4 0.452600
4 \$788:1 \$788:5 0.670100
5 \$788:1 \$788:6 0.449900
6 \$788:1 \$788:7 0.698900
*END

*D_NET \$789 0.243564
*CAP
1 \$789:1 0.239465
2 \$789:1 _069_ 0.004099
*RES
1 \$789:1 \$789:2 0.252900
2 \$789:1 \$789:3 0.252900
3 \$789:1 \$789:4 0.256700
4 \$789:1 \$789:5 0.256700
*END

*D_NET \$79 0.844314
*CAP
1 \$79:1 0.844314
*RES
1 \$79:1 \$79:2 23.748600
2 \$79:1 \$79:3 27.599400
3 \$79:1 \$79:4 22.372100
4 \$79:1 \$79:5 12.741300
5 \$79:1 \$79:6 22.897300
6 \$79:1 \$79:7 13.523900
*END

*D_NET \$790 0.361186
*CAP
1 \$790:1 0.361186
*RES
1 \$790:1 \$790:2 0.399500
2 \$790:1 \$790:3 0.377400
3 \$790:1 \$790:4 0.382200
4 \$790:1 \$790:5 0.406100
*END

*D_NET \$80 0.973478
*CAP
1 \$80:1 0.973478
*RES
1 \$80:1 \$80:2 17.360700
2 \$80:1 \$80:3 17.105400
3 \$80:1 \$80:4 16.870200
4 \$80:1 \$80:5 8.058000
5 \$80:1 \$80:6 13.771500
6 \$80:1 \$80:7 8.212700
*END

*D_NET \$824 2.494182
*CAP
1 \$824:1 2.454262
2 \$824:1 u_destuffer\/_04_ 0.006334
3 \$824:1 u_destuffer\/_08_ 0.003801
4 \$824:1 u_destuffer\/_09_ 0.003801
5 \$824:1 u_destuffer\/_17_ 0.006399
6 \$824:1 u_destuffer\/_18_ 0.003801
7 \$824:1 u_destuffer\/_20_ 0.011676
8 \$824:1 u_destuffer\/_21_ 0.004108
*RES
1 \$824:1 \$824:2 1.058100
2 \$824:1 \$824:3 1.048100
3 \$824:1 \$824:4 0.300700
4 \$824:1 \$824:5 0.142200
5 \$824:1 \$824:6 0.939900
6 \$824:1 \$824:7 0.723500
7 \$824:1 \$824:8 0.507000
8 \$824:1 \$824:9 0.625300
9 \$824:1 \$824:10 0.841700
10 \$824:1 \$824:11 0.290600
11 \$824:1 \$824:12 0.074200
12 \$824:1 \$824:13 0.408900
13 \$824:1 \$824:14 0.831700
14 \$824:1 \$824:15 0.615200
15 \$824:1 \$824:16 0.733500
16 \$824:1 \$824:17 0.949900
17 \$824:1 \$824:18 0.182400
18 \$824:1 \$824:19 0.034000
19 \$824:1 \$824:20 0.517100
20 \$824:1 \$824:21 0.398800
*END

*D_NET \$847 2.132340
*CAP
1 \$847:1 2.128539
2 \$847:1 u_destuffer\/_05_ 0.003801
*RES
1 \$847:1 \$847:2 63.310200
2 \$847:1 \$847:3 48.046900
3 \$847:1 \$847:4 13.008400
4 \$847:1 \$847:5 23.606500
5 \$847:1 \$847:6 48.146100
6 \$847:1 \$847:7 47.329500
*END

*D_NET \$848 2.139232
*CAP
1 \$848:1 2.121416
2 \$848:1 _054_ 0.004532
3 \$848:1 u_destuffer\/_00_ 0.013284
*RES
1 \$848:1 \$848:2 63.310200
2 \$848:1 \$848:3 48.046900
3 \$848:1 \$848:4 13.008400
4 \$848:1 \$848:5 23.606500
5 \$848:1 \$848:6 48.146100
6 \$848:1 \$848:7 47.329500
*END

*D_NET \$849 2.512711
*CAP
1 \$849:1 2.508910
2 \$849:1 clknet_3_1__leaf_clk 0.003801
*RES
1 \$849:1 \$849:2 36.428000
2 \$849:1 \$849:3 36.954100
3 \$849:1 \$849:4 17.679900
4 \$849:1 \$849:5 17.460200
5 \$849:1 \$849:6 25.810100
6 \$849:1 \$849:7 25.357500
7 \$849:1 \$849:8 17.460200
8 \$849:1 \$849:9 17.679900
9 \$849:1 \$849:10 36.428000
10 \$849:1 \$849:11 25.357500
11 \$849:1 \$849:12 25.810100
12 \$849:1 \$849:13 36.954100
*END

*D_NET \$851 2.141675
*CAP
1 \$851:1 2.118890
2 \$851:1 _034_ 0.015183
3 \$851:1 _088_ 0.003801
4 \$851:1 clknet_3_5__leaf_clk 0.003801
*RES
1 \$851:1 \$851:2 63.310200
2 \$851:1 \$851:3 48.046900
3 \$851:1 \$851:4 13.008400
4 \$851:1 \$851:5 23.606500
5 \$851:1 \$851:6 48.146100
6 \$851:1 \$851:7 47.329500
*END

*D_NET \$854 2.132340
*CAP
1 \$854:1 2.128539
2 \$854:1 _010_ 0.003801
*RES
1 \$854:1 \$854:2 63.310200
2 \$854:1 \$854:3 48.046900
3 \$854:1 \$854:4 13.008400
4 \$854:1 \$854:5 23.606500
5 \$854:1 \$854:6 48.146100
6 \$854:1 \$854:7 47.329500
*END

*D_NET \$855 2.138866
*CAP
1 \$855:1 2.121794
2 \$855:1 _054_ 0.004532
3 \$855:1 _078_ 0.008739
4 \$855:1 tx_bitidx[1] 0.003801
*RES
1 \$855:1 \$855:2 63.310200
2 \$855:1 \$855:3 48.046900
3 \$855:1 \$855:4 13.008400
4 \$855:1 \$855:5 23.606500
5 \$855:1 \$855:6 48.146100
6 \$855:1 \$855:7 47.329500
*END

*D_NET \$856 2.897901
*CAP
1 \$856:1 2.890298
2 \$856:1 clknet_3_0__leaf_clk 0.007603
*RES
1 \$856:1 \$856:2 82.156100
2 \$856:1 \$856:3 110.065100
3 \$856:1 \$856:4 34.925800
4 \$856:1 \$856:5 20.494200
5 \$856:1 \$856:6 48.068200
6 \$856:1 \$856:7 65.091900
7 \$856:1 \$856:8 65.705800
8 \$856:1 \$856:9 46.925300
*END

*D_NET \$857 0.844534
*CAP
1 \$857:1 0.844087
2 \$857:1 u_destuffer\/_05_ 0.000447
*RES
1 \$857:1 \$857:2 23.748600
2 \$857:1 \$857:3 27.599400
3 \$857:1 \$857:4 22.372100
4 \$857:1 \$857:5 12.741300
5 \$857:1 \$857:6 22.897300
6 \$857:1 \$857:7 13.523900
*END

*D_NET \$858 0.832679
*CAP
1 \$858:1 0.832679
*RES
1 \$858:1 \$858:2 15.499600
2 \$858:1 \$858:3 16.527400
3 \$858:1 \$858:4 10.298700
4 \$858:1 \$858:5 13.857700
5 \$858:1 \$858:6 10.523900
6 \$858:1 \$858:7 17.319100
*END

*D_NET \$859 0.973545
*CAP
1 \$859:1 0.973409
2 \$859:1 u_destuffer\/ones[2] 0.000136
*RES
1 \$859:1 \$859:2 17.360700
2 \$859:1 \$859:3 17.105400
3 \$859:1 \$859:4 16.870200
4 \$859:1 \$859:5 8.058000
5 \$859:1 \$859:6 13.771500
6 \$859:1 \$859:7 8.212700
*END

*D_NET \$860 1.349946
*CAP
1 \$860:1 1.336559
2 \$860:1 destuff_out_bit 0.003801
3 \$860:1 u_destuffer\/ones[1] 0.003801
4 \$860:1 u_destuffer\/ones[2] 0.005785
*RES
1 \$860:1 \$860:2 37.481600
2 \$860:1 \$860:3 18.380300
3 \$860:1 \$860:4 19.166400
4 \$860:1 \$860:5 30.960700
5 \$860:1 \$860:6 31.720400
6 \$860:1 \$860:7 37.678600
*END

*D_NET \$861 2.899769
*CAP
1 \$861:1 2.888366
2 \$861:1 _054_ 0.003801
3 \$861:1 clknet_3_0__leaf_clk 0.003801
4 \$861:1 u_destuffer\/_00_ 0.003801
*RES
1 \$861:1 \$861:2 82.156100
2 \$861:1 \$861:3 110.065100
3 \$861:1 \$861:4 34.925800
4 \$861:1 \$861:5 20.494200
5 \$861:1 \$861:6 48.068200
6 \$861:1 \$861:7 65.091900
7 \$861:1 \$861:8 65.705800
8 \$861:1 \$861:9 46.925300
*END

*D_NET \$862 0.847077
*CAP
1 \$862:1 0.841458
2 \$862:1 _054_ 0.005619
*RES
1 \$862:1 \$862:2 23.748600
2 \$862:1 \$862:3 27.599400
3 \$862:1 \$862:4 22.372100
4 \$862:1 \$862:5 12.741300
5 \$862:1 \$862:6 22.897300
6 \$862:1 \$862:7 13.523900
*END

*D_NET \$863 0.832679
*CAP
1 \$863:1 0.832679
*RES
1 \$863:1 \$863:2 15.499600
2 \$863:1 \$863:3 16.527400
3 \$863:1 \$863:4 10.298700
4 \$863:1 \$863:5 13.857700
5 \$863:1 \$863:6 10.523900
6 \$863:1 \$863:7 17.319100
*END

*D_NET \$864 0.973478
*CAP
1 \$864:1 0.973478
*RES
1 \$864:1 \$864:2 17.360700
2 \$864:1 \$864:3 17.105400
3 \$864:1 \$864:4 16.870200
4 \$864:1 \$864:5 8.058000
5 \$864:1 \$864:6 13.771500
6 \$864:1 \$864:7 8.212700
*END

*D_NET \$865 1.343363
*CAP
1 \$865:1 1.343363
*RES
1 \$865:1 \$865:2 37.481600
2 \$865:1 \$865:3 18.380300
3 \$865:1 \$865:4 19.166400
4 \$865:1 \$865:5 30.960700
5 \$865:1 \$865:6 31.720400
6 \$865:1 \$865:7 37.678600
*END

*D_NET \$867 2.896562
*CAP
1 \$867:1 2.891683
2 \$867:1 clknet_3_5__leaf_clk 0.004879
*RES
1 \$867:1 \$867:2 82.156100
2 \$867:1 \$867:3 110.065100
3 \$867:1 \$867:4 34.925800
4 \$867:1 \$867:5 20.494200
5 \$867:1 \$867:6 48.068200
6 \$867:1 \$867:7 65.091900
7 \$867:1 \$867:8 65.705800
8 \$867:1 \$867:9 46.925300
*END

*D_NET \$868 0.849840
*CAP
1 \$868:1 0.838602
2 \$868:1 _088_ 0.005619
3 \$868:1 clknet_3_5__leaf_clk 0.005619
*RES
1 \$868:1 \$868:2 23.748600
2 \$868:1 \$868:3 27.599400
3 \$868:1 \$868:4 22.372100
4 \$868:1 \$868:5 12.741300
5 \$868:1 \$868:6 22.897300
6 \$868:1 \$868:7 13.523900
*END

*D_NET \$869 0.835442
*CAP
1 \$869:1 0.829823
2 \$869:1 _088_ 0.005619
*RES
1 \$869:1 \$869:2 15.499600
2 \$869:1 \$869:3 16.527400
3 \$869:1 \$869:4 10.298700
4 \$869:1 \$869:5 13.857700
5 \$869:1 \$869:6 10.523900
6 \$869:1 \$869:7 17.319100
*END

*D_NET \$870 0.978030
*CAP
1 \$870:1 0.968773
2 \$870:1 _054_ 0.000136
3 \$870:1 _088_ 0.005320
4 \$870:1 tx_state[3] 0.003801
*RES
1 \$870:1 \$870:2 17.360700
2 \$870:1 \$870:3 17.105400
3 \$870:1 \$870:4 16.870200
4 \$870:1 \$870:5 8.058000
5 \$870:1 \$870:6 13.771500
6 \$870:1 \$870:7 8.212700
*END

*D_NET \$871 1.348889
*CAP
1 \$871:1 1.337651
2 \$871:1 _054_ 0.005619
3 \$871:1 tx_state[3] 0.005619
*RES
1 \$871:1 \$871:2 37.481600
2 \$871:1 \$871:3 18.380300
3 \$871:1 \$871:4 19.166400
4 \$871:1 \$871:5 30.960700
5 \$871:1 \$871:6 31.720400
6 \$871:1 \$871:7 37.678600
*END

*D_NET \$872 2.905246
*CAP
1 \$872:1 2.882707
2 \$872:1 clknet_3_5__leaf_clk 0.022539
*RES
1 \$872:1 \$872:2 82.156100
2 \$872:1 \$872:3 110.065100
3 \$872:1 \$872:4 34.925800
4 \$872:1 \$872:5 20.494200
5 \$872:1 \$872:6 48.068200
6 \$872:1 \$872:7 65.091900
7 \$872:1 \$872:8 65.705800
8 \$872:1 \$872:9 46.925300
*END

*D_NET \$873 0.844534
*CAP
1 \$873:1 0.844087
2 \$873:1 _010_ 0.000447
*RES
1 \$873:1 \$873:2 23.748600
2 \$873:1 \$873:3 27.599400
3 \$873:1 \$873:4 22.372100
4 \$873:1 \$873:5 12.741300
5 \$873:1 \$873:6 22.897300
6 \$873:1 \$873:7 13.523900
*END

*D_NET \$874 0.832679
*CAP
1 \$874:1 0.832679
*RES
1 \$874:1 \$874:2 15.499600
2 \$874:1 \$874:3 16.527400
3 \$874:1 \$874:4 10.298700
4 \$874:1 \$874:5 13.857700
5 \$874:1 \$874:6 10.523900
6 \$874:1 \$874:7 17.319100
*END

*D_NET \$875 0.973545
*CAP
1 \$875:1 0.973409
2 \$875:1 cur_byte[1] 0.000136
*RES
1 \$875:1 \$875:2 17.360700
2 \$875:1 \$875:3 17.105400
3 \$875:1 \$875:4 16.870200
4 \$875:1 \$875:5 8.058000
5 \$875:1 \$875:6 13.771500
6 \$875:1 \$875:7 8.212700
*END

*D_NET \$876 1.347996
*CAP
1 \$876:1 1.338575
2 \$876:1 cur_byte[1] 0.009421
*RES
1 \$876:1 \$876:2 37.481600
2 \$876:1 \$876:3 18.380300
3 \$876:1 \$876:4 19.166400
4 \$876:1 \$876:5 30.960700
5 \$876:1 \$876:6 31.720400
6 \$876:1 \$876:7 37.678600
*END

*D_NET \$877 2.913071
*CAP
1 \$877:1 2.874619
2 \$877:1 _026_ 0.003801
3 \$877:1 _054_ 0.003801
4 \$877:1 _069_ 0.003801
5 \$877:1 _072_ 0.009273
6 \$877:1 _078_ 0.003801
7 \$877:1 _117_ 0.003801
8 \$877:1 clknet_3_5__leaf_clk 0.005295
9 \$877:1 tx_bitidx[1] 0.004879
*RES
1 \$877:1 \$877:2 82.156100
2 \$877:1 \$877:3 110.065100
3 \$877:1 \$877:4 34.925800
4 \$877:1 \$877:5 20.494200
5 \$877:1 \$877:6 48.068200
6 \$877:1 \$877:7 65.091900
7 \$877:1 \$877:8 65.705800
8 \$877:1 \$877:9 46.925300
*END

*D_NET \$879 0.850569
*CAP
1 \$879:1 0.837848
2 \$879:1 _026_ 0.001483
3 \$879:1 _054_ 0.005619
4 \$879:1 tx_bitidx[1] 0.005619
*RES
1 \$879:1 \$879:2 23.748600
2 \$879:1 \$879:3 27.599400
3 \$879:1 \$879:4 22.372100
4 \$879:1 \$879:5 12.741300
5 \$879:1 \$879:6 22.897300
6 \$879:1 \$879:7 13.523900
*END

*D_NET \$880 0.832679
*CAP
1 \$880:1 0.832679
*RES
1 \$880:1 \$880:2 15.499600
2 \$880:1 \$880:3 16.527400
3 \$880:1 \$880:4 10.298700
4 \$880:1 \$880:5 13.857700
5 \$880:1 \$880:6 10.523900
6 \$880:1 \$880:7 17.319100
*END

*D_NET \$881 0.973478
*CAP
1 \$881:1 0.973478
*RES
1 \$881:1 \$881:2 17.360700
2 \$881:1 \$881:3 17.105400
3 \$881:1 \$881:4 16.870200
4 \$881:1 \$881:5 8.058000
5 \$881:1 \$881:6 13.771500
6 \$881:1 \$881:7 8.212700
*END

*D_NET \$882 1.345232
*CAP
1 \$882:1 1.341431
2 \$882:1 cur_byte[7] 0.003801
*RES
1 \$882:1 \$882:2 37.481600
2 \$882:1 \$882:3 18.380300
3 \$882:1 \$882:4 19.166400
4 \$882:1 \$882:5 30.960700
5 \$882:1 \$882:6 31.720400
6 \$882:1 \$882:7 37.678600
*END

*D_NET \$901 1.076903
*CAP
1 \$901:1 1.065500
2 \$901:1 _056_ 0.003801
3 \$901:1 _057_ 0.003801
4 \$901:1 _077_ 0.003801
*RES
1 \$901:1 \$901:2 2.402600
2 \$901:1 \$901:3 2.402600
*END

*D_NET \$923 1.474838
*CAP
1 \$923:1 1.456074
2 \$923:1 u_destuffer\/_09_ 0.003801
3 \$923:1 u_destuffer\/_20_ 0.003801
4 \$923:1 u_destuffer\/_21_ 0.011162
*RES
1 \$923:1 \$923:2 0.962000
2 \$923:1 \$923:3 0.946500
3 \$923:1 \$923:4 0.454200
4 \$923:1 \$923:5 0.238400
5 \$923:1 \$923:6 0.777200
6 \$923:1 \$923:7 0.438700
7 \$923:1 \$923:8 0.623400
8 \$923:1 \$923:9 0.100100
9 \$923:1 \$923:10 0.269400
10 \$923:1 \$923:11 0.608000
11 \$923:1 \$923:12 0.792700
12 \$923:1 \$923:13 0.069100
*END

*D_NET \$926 1.081133
*CAP
1 \$926:1 1.065054
2 \$926:1 _009_ 0.007603
3 \$926:1 _111_ 0.003834
4 \$926:1 rx_receiving 0.004642
*RES
1 \$926:1 \$926:2 13.242300
2 \$926:1 \$926:3 21.267000
3 \$926:1 \$926:4 18.132100
4 \$926:1 \$926:5 16.491100
5 \$926:1 \$926:6 12.683900
*END

*D_NET \$928 2.904457
*CAP
1 \$928:1 2.883524
2 \$928:1 clknet_3_1__leaf_clk 0.004479
3 \$928:1 line_state[0] 0.011575
4 \$928:1 txdp 0.004879
*RES
1 \$928:1 \$928:2 82.156100
2 \$928:1 \$928:3 110.065100
3 \$928:1 \$928:4 34.925800
4 \$928:1 \$928:5 20.494200
5 \$928:1 \$928:6 48.068200
6 \$928:1 \$928:7 65.091900
7 \$928:1 \$928:8 65.705800
8 \$928:1 \$928:9 46.925300
*END

*D_NET \$929 0.838357
*CAP
1 \$929:1 0.826810
2 \$929:1 _041_ 0.005928
3 \$929:1 clk 0.005619
*RES
1 \$929:1 \$929:2 16.527400
2 \$929:1 \$929:3 15.499600
3 \$929:1 \$929:4 10.523900
4 \$929:1 \$929:5 10.298700
5 \$929:1 \$929:6 13.857700
6 \$929:1 \$929:7 17.319100
*END

*D_NET \$930 1.346439
*CAP
1 \$930:1 1.340183
2 \$930:1 clknet_3_4__leaf_clk 0.001505
3 \$930:1 line_state[0] 0.000950
4 \$930:1 rxdm 0.003801
*RES
1 \$930:1 \$930:2 19.166400
2 \$930:1 \$930:3 18.380300
3 \$930:1 \$930:4 30.960700
4 \$930:1 \$930:5 31.720400
5 \$930:1 \$930:6 37.481600
6 \$930:1 \$930:7 37.678600
*END

*D_NET \$932 0.318102
*CAP
1 \$932:1 0.306306
2 \$932:1 TxValid 0.007995
3 \$932:1 _085_ 0.003801
*RES
1 \$932:1 \$932:2 0.635800
2 \$932:1 \$932:3 0.035300
3 \$932:1 \$932:4 0.671100
*END

*D_NET \$933 2.896031
*CAP
1 \$933:1 2.892230
2 \$933:1 clknet_3_5__leaf_clk 0.003801
*RES
1 \$933:1 \$933:2 82.156100
2 \$933:1 \$933:3 110.065100
3 \$933:1 \$933:4 34.925800
4 \$933:1 \$933:5 20.494200
5 \$933:1 \$933:6 48.068200
6 \$933:1 \$933:7 65.091900
7 \$933:1 \$933:8 65.705800
8 \$933:1 \$933:9 46.925300
*END

*D_NET \$934 0.839932
*CAP
1 \$934:1 0.825182
2 \$934:1 _054_ 0.005619
3 \$934:1 _088_ 0.003512
4 \$934:1 tx_state[3] 0.005619
*RES
1 \$934:1 \$934:2 16.527400
2 \$934:1 \$934:3 15.499600
3 \$934:1 \$934:4 10.523900
4 \$934:1 \$934:5 10.298700
5 \$934:1 \$934:6 13.857700
6 \$934:1 \$934:7 17.319100
*END

*D_NET \$935 1.345232
*CAP
1 \$935:1 1.341431
2 \$935:1 next_valid 0.003801
*RES
1 \$935:1 \$935:2 19.166400
2 \$935:1 \$935:3 18.380300
3 \$935:1 \$935:4 30.960700
4 \$935:1 \$935:5 31.720400
5 \$935:1 \$935:6 37.481600
6 \$935:1 \$935:7 37.678600
*END

*D_NET \$936 0.317050
*CAP
1 \$936:1 0.307394
2 \$936:1 _073_ 0.003801
3 \$936:1 tx_bitidx[2] 0.005855
*RES
1 \$936:1 \$936:2 0.650500
2 \$936:1 \$936:3 0.671100
3 \$936:1 \$936:4 0.020600
*END

*D_NET \$941 2.137419
*CAP
1 \$941:1 2.123289
2 \$941:1 clk 0.003801
3 \$941:1 int_rst_n 0.006528
4 \$941:1 txdp 0.003801
*RES
1 \$941:1 \$941:2 23.606500
2 \$941:1 \$941:3 63.310200
3 \$941:1 \$941:4 48.046900
4 \$941:1 \$941:5 13.008400
5 \$941:1 \$941:6 48.146100
6 \$941:1 \$941:7 47.329500
*END

*D_NET \$942 0.850005
*CAP
1 \$942:1 0.838431
2 \$942:1 clk 0.005619
3 \$942:1 txdp 0.005619
4 \$942:1 u_line_state\/_0_ 0.000336
*RES
1 \$942:1 \$942:2 27.599400
2 \$942:1 \$942:3 23.748600
3 \$942:1 \$942:4 22.372100
4 \$942:1 \$942:5 12.741300
5 \$942:1 \$942:6 22.897300
6 \$942:1 \$942:7 13.523900
*END

*D_NET \$943 0.979213
*CAP
1 \$943:1 0.967551
2 \$943:1 clknet_3_4__leaf_clk 0.003801
3 \$943:1 u_line_state\/_0_ 0.007861
*RES
1 \$943:1 \$943:2 17.105400
2 \$943:1 \$943:3 17.360700
3 \$943:1 \$943:4 16.870200
4 \$943:1 \$943:5 8.058000
5 \$943:1 \$943:6 13.771500
6 \$943:1 \$943:7 8.212700
*END

*D_NET \$946 2.137947
*CAP
1 \$946:1 2.122743
2 \$946:1 _036_ 0.003801
3 \$946:1 _054_ 0.003801
4 \$946:1 _088_ 0.003801
5 \$946:1 tx_state[3] 0.003801
*RES
1 \$946:1 \$946:2 23.606500
2 \$946:1 \$946:3 63.310200
3 \$946:1 \$946:4 48.046900
4 \$946:1 \$946:5 13.008400
5 \$946:1 \$946:6 48.146100
6 \$946:1 \$946:7 47.329500
*END

*D_NET \$947 0.853436
*CAP
1 \$947:1 0.834885
2 \$947:1 _036_ 0.003801
3 \$947:1 _054_ 0.003512
4 \$947:1 _088_ 0.005619
5 \$947:1 tx_state[3] 0.005619
*RES
1 \$947:1 \$947:2 27.599400
2 \$947:1 \$947:3 23.748600
3 \$947:1 \$947:4 22.372100
4 \$947:1 \$947:5 12.741300
5 \$947:1 \$947:6 22.897300
6 \$947:1 \$947:7 13.523900
*END

*D_NET \$948 0.973478
*CAP
1 \$948:1 0.973478
*RES
1 \$948:1 \$948:2 17.105400
2 \$948:1 \$948:3 17.360700
3 \$948:1 \$948:4 16.870200
4 \$948:1 \$948:5 8.058000
5 \$948:1 \$948:6 13.771500
6 \$948:1 \$948:7 8.212700
*END

*D_NET \$966 0.363363
*CAP
1 \$966:1 0.351960
2 \$966:1 dec_data_bit 0.003801
3 \$966:1 dec_line_valid 0.003801
4 \$966:1 u_decoder\/_05_ 0.003801
*RES
1 \$966:1 \$966:2 0.768000
2 \$966:1 \$966:3 0.774800
3 \$966:1 \$966:4 0.006800
*END

*D_NET \$986 2.829064
*CAP
1 \$986:1 2.815843
2 \$986:1 int_rst_n 0.003801
3 \$986:1 rxdm 0.003801
4 \$986:1 txdm 0.005619
*RES
1 \$986:1 \$986:2 11.304300
2 \$986:1 \$986:3 33.459400
3 \$986:1 \$986:4 36.539100
4 \$986:1 \$986:5 19.428000
5 \$986:1 \$986:6 27.284300
6 \$986:1 \$986:7 15.301800
7 \$986:1 \$986:8 16.518000
8 \$986:1 \$986:9 24.564700
9 \$986:1 \$986:10 32.182600
10 \$986:1 \$986:11 23.157400
11 \$986:1 \$986:12 21.768900
12 \$986:1 \$986:13 14.668000
13 \$986:1 \$986:14 39.343800
14 \$986:1 \$986:15 30.301000
*END

*D_NET \$987 2.897900
*CAP
1 \$987:1 2.890298
2 \$987:1 clknet_3_0__leaf_clk 0.003801
3 \$987:1 u_destuffer\/_03_ 0.003801
*RES
1 \$987:1 \$987:2 82.156100
2 \$987:1 \$987:3 110.065100
3 \$987:1 \$987:4 34.925800
4 \$987:1 \$987:5 20.494200
5 \$987:1 \$987:6 48.068200
6 \$987:1 \$987:7 65.091900
7 \$987:1 \$987:8 65.705800
8 \$987:1 \$987:9 46.925300
*END

*D_NET \$988 2.130471
*CAP
1 \$988:1 2.130471
*RES
1 \$988:1 \$988:2 63.310200
2 \$988:1 \$988:3 48.046900
3 \$988:1 \$988:4 13.008400
4 \$988:1 \$988:5 23.606500
5 \$988:1 \$988:6 48.146100
6 \$988:1 \$988:7 47.329500
*END

*D_NET \$990 0.845043
*CAP
1 \$990:1 0.843560
2 \$990:1 u_destuffer\/_03_ 0.001483
*RES
1 \$990:1 \$990:2 23.748600
2 \$990:1 \$990:3 27.599400
3 \$990:1 \$990:4 22.372100
4 \$990:1 \$990:5 12.741300
5 \$990:1 \$990:6 22.897300
6 \$990:1 \$990:7 13.523900
*END

*D_NET \$991 0.832679
*CAP
1 \$991:1 0.832679
*RES
1 \$991:1 \$991:2 15.499600
2 \$991:1 \$991:3 16.527400
3 \$991:1 \$991:4 10.298700
4 \$991:1 \$991:5 13.857700
5 \$991:1 \$991:6 10.523900
6 \$991:1 \$991:7 17.319100
*END

*D_NET \$992 0.973545
*CAP
1 \$992:1 0.973409
2 \$992:1 u_destuffer\/ones[2] 0.000136
*RES
1 \$992:1 \$992:2 17.360700
2 \$992:1 \$992:3 17.105400
3 \$992:1 \$992:4 16.870200
4 \$992:1 \$992:5 8.058000
5 \$992:1 \$992:6 13.771500
6 \$992:1 \$992:7 8.212700
*END

*D_NET \$993 1.347995
*CAP
1 \$993:1 1.338575
2 \$993:1 u_destuffer\/ones[1] 0.003801
3 \$993:1 u_destuffer\/ones[2] 0.005619
*RES
1 \$993:1 \$993:2 37.481600
2 \$993:1 \$993:3 18.380300
3 \$993:1 \$993:4 19.166400
4 \$993:1 \$993:5 30.960700
5 \$993:1 \$993:6 31.720400
6 \$993:1 \$993:7 37.678600
*END

*D_NET \$994 2.514372
*CAP
1 \$994:1 2.507194
2 \$994:1 clknet_0_clk 0.007178
*RES
1 \$994:1 \$994:2 36.428000
2 \$994:1 \$994:3 36.954100
3 \$994:1 \$994:4 25.810100
4 \$994:1 \$994:5 17.679900
5 \$994:1 \$994:6 17.460200
6 \$994:1 \$994:7 17.460200
7 \$994:1 \$994:8 25.357500
8 \$994:1 \$994:9 17.679900
9 \$994:1 \$994:10 36.428000
10 \$994:1 \$994:11 25.357500
11 \$994:1 \$994:12 25.810100
12 \$994:1 \$994:13 36.954100
*END

*D_NET \$998 1.121919
*CAP
1 \$998:1 1.118118
2 \$998:1 dec_line_bit 0.003801
*RES
1 \$998:1 \$998:2 20.605000
2 \$998:1 \$998:3 15.008600
3 \$998:1 \$998:4 18.928400
4 \$998:1 \$998:5 15.930500
5 \$998:1 \$998:6 11.580900
*END

*D_NET DataIn\[0\] 6.063660
*CONN
*P DataIn\[0\] B
*I _316_:Q B
*I _256_:I1 B
*CAP
1 DataIn[0] 5.898049
2 DataIn[0] DataOut[1] 0.018511
3 DataIn[0] TxReady 0.004628
4 DataIn[0] TxValid 0.004628
5 DataIn[0] VDD 0.014875
6 DataIn[0] VSS 0.014875
7 DataIn[0] _013_ 0.004628
8 DataIn[0] _041_ 0.004628
9 DataIn[0] _054_ 0.009255
10 DataIn[0] _085_ 0.004628
11 DataIn[0] _086_ 0.004628
12 DataIn[0] _088_ 0.018511
13 DataIn[0] _091_ 0.004628
14 DataIn[0] _092_ 0.004628
15 DataIn[0] _094_ 0.004628
16 DataIn[0] _097_ 0.004628
17 DataIn[0] _101_ 0.004628
18 DataIn[0] clk 0.004628
19 DataIn[0] clknet_3_4__leaf_clk 0.014710
20 DataIn[0] line_state[1] 0.004628
21 DataIn[0] rx_shift[1] 0.000826
22 DataIn[0] rxdm 0.004628
23 DataIn[0] rxdp 0.004628
24 DataIn[0] txdm 0.004628
*RES
1 DataIn[0] DataIn\[0\]:2 27.417700
2 DataIn[0] DataIn\[0\]:3 35.277500
3 DataIn[0] DataIn\[0\]:4 27.696800
4 DataIn[0] DataIn\[0\]:5 35.260000
5 DataIn[0] _316_:Q 0.000000
6 DataIn[0] _256_:I1 0.000000
*END

*D_NET DataIn\[1\] 4.412726
*CONN
*P DataIn\[1\] B
*I _317_:Q B
*I _249_:I1 B
*CAP
1 DataIn[1] 4.213905
2 DataIn[1] DataIn[2] 0.004628
3 DataIn[1] DataIn[3] 0.004628
4 DataIn[1] DataIn[4] 0.004628
5 DataIn[1] DataIn[7] 0.004628
6 DataIn[1] DataOut[0] 0.004628
7 DataIn[1] DataOut[1] 0.013883
8 DataIn[1] DataOut[2] 0.004628
9 DataIn[1] DataOut[5] 0.004628
10 DataIn[1] DataOut[6] 0.004628
11 DataIn[1] TxValid 0.004628
12 DataIn[1] VDD 0.050322
13 DataIn[1] VSS 0.065197
14 DataIn[1] _054_ 0.004628
15 DataIn[1] _114_ 0.004628
16 DataIn[1] clk 0.009255
17 DataIn[1] rx_shift[2] 0.004628
18 DataIn[1] txdp 0.004628
*RES
1 DataIn[1] DataIn\[1\]:2 31.691400
2 DataIn[1] DataIn\[1\]:3 25.649000
3 DataIn[1] DataIn\[1\]:4 32.432100
4 DataIn[1] DataIn\[1\]:5 25.051100
5 DataIn[1] _317_:Q 0.000000
6 DataIn[1] _249_:I1 0.000000
*END

*D_NET DataIn\[2\] 4.271354
*CONN
*P DataIn\[2\] B
*I _318_:Q B
*I _247_:I1 B
*CAP
1 DataIn[2] 4.076029
2 DataIn[2] DataIn[4] 0.004628
3 DataIn[2] DataIn[7] 0.004628
4 DataIn[2] DataOut[1] 0.004628
5 DataIn[2] DataOut[3] 0.004628
6 DataIn[2] DataOut[5] 0.004628
7 DataIn[2] TxReady 0.004628
8 DataIn[2] TxValid 0.004628
9 DataIn[2] VDD 0.029750
10 DataIn[2] VSS 0.044624
11 DataIn[2] _054_ 0.004628
12 DataIn[2] _085_ 0.009255
13 DataIn[2] _086_ 0.004628
14 DataIn[2] _096_ 0.004628
15 DataIn[2] _097_ 0.000627
16 DataIn[2] _100_ 0.004628
17 DataIn[2] _114_ 0.004628
18 DataIn[2] clk 0.009255
19 DataIn[2] clknet_3_4__leaf_clk 0.009255
20 DataIn[2] line_state[1] 0.004628
21 DataIn[2] rx_shift[3] 0.004628
22 DataIn[2] rx_shift[4] 0.009255
23 DataIn[2] rxdm 0.004628
24 DataIn[2] rxdp 0.004628
25 DataIn[2] txdm 0.004628
26 DataIn[2] txdp 0.004628
*RES
1 DataIn[2] DataIn\[2\]:2 31.043400
2 DataIn[2] DataIn\[2\]:3 26.201200
3 DataIn[2] DataIn\[2\]:4 31.707500
4 DataIn[2] DataIn\[2\]:5 25.669600
5 DataIn[2] _318_:Q 0.000000
6 DataIn[2] _247_:I1 0.000000
*END

*D_NET DataIn\[3\] 3.593761
*CONN
*P DataIn\[3\] B
*I _319_:Q B
*I _246_:I1 B
*CAP
1 DataIn[3] 3.435995
2 DataIn[3] DataIn[4] 0.004628
3 DataIn[3] DataIn[7] 0.013883
4 DataIn[3] DataOut[0] 0.004628
5 DataIn[3] DataOut[1] 0.013883
6 DataIn[3] DataOut[2] 0.004628
7 DataIn[3] DataOut[3] 0.004628
8 DataIn[3] DataOut[5] 0.004628
9 DataIn[3] DataOut[6] 0.009255
10 DataIn[3] TxReady 0.009255
11 DataIn[3] TxValid 0.004628
12 DataIn[3] VDD 0.014875
13 DataIn[3] VSS 0.050335
14 DataIn[3] _114_ 0.004628
15 DataIn[3] rxdm 0.004628
16 DataIn[3] txdm 0.004628
17 DataIn[3] txdp 0.004628
*RES
1 DataIn[3] DataIn\[3\]:2 25.231700
2 DataIn[3] DataIn\[3\]:3 30.483200
3 DataIn[3] DataIn\[3\]:4 31.164900
4 DataIn[3] DataIn\[3\]:5 24.684200
5 DataIn[3] _319_:Q 0.000000
6 DataIn[3] _246_:I1 0.000000
*END

*D_NET DataIn\[4\] 5.614195
*CONN
*P DataIn\[4\] B
*I _320_:Q B
*I _245_:I1 B
*CAP
1 DataIn[4] 5.454865
2 DataIn[4] DataIn[5] 0.009255
3 DataIn[4] DataIn[6] 0.009255
4 DataIn[4] DataIn[7] 0.009255
5 DataIn[4] DataOut[0] 0.004628
6 DataIn[4] DataOut[1] 0.004628
7 DataIn[4] DataOut[2] 0.004628
8 DataIn[4] DataOut[3] 0.004628
9 DataIn[4] DataOut[4] 0.004628
10 DataIn[4] DataOut[5] 0.004628
11 DataIn[4] DataOut[6] 0.004628
12 DataIn[4] Reset 0.004628
13 DataIn[4] RxValid 0.004628
14 DataIn[4] TxReady 0.004628
15 DataIn[4] TxValid 0.004628
16 DataIn[4] VDD 0.014875
17 DataIn[4] VSS 0.014875
18 DataIn[4] clk 0.004628
19 DataIn[4] line_state[0] 0.013883
20 DataIn[4] line_state[1] 0.004628
21 DataIn[4] rst_n 0.004628
22 DataIn[4] rx_receiving 0.004628
23 DataIn[4] rxdm 0.004628
24 DataIn[4] rxdp 0.004628
25 DataIn[4] txdm 0.004628
26 DataIn[4] txdp 0.004628
*RES
1 DataIn[4] DataIn\[4\]:2 25.195100
2 DataIn[4] DataIn\[4\]:3 35.771200
3 DataIn[4] DataIn\[4\]:4 25.459700
4 DataIn[4] DataIn\[4\]:5 35.850300
5 DataIn[4] _320_:Q 0.000000
6 DataIn[4] _245_:I1 0.000000
*END

*D_NET DataIn\[5\] 5.536240
*CONN
*P DataIn\[5\] B
*I _321_:Q B
*I _242_:I1 B
*CAP
1 DataIn[5] 5.349145
2 DataIn[5] DataIn[6] 0.009255
3 DataIn[5] DataIn[7] 0.004628
4 DataIn[5] DataOut[0] 0.004628
5 DataIn[5] DataOut[1] 0.004628
6 DataIn[5] DataOut[2] 0.004628
7 DataIn[5] DataOut[5] 0.004628
8 DataIn[5] Reset 0.004628
9 DataIn[5] RxValid 0.004628
10 DataIn[5] VDD 0.014875
11 DataIn[5] VSS 0.088918
12 DataIn[5] _027_ 0.004628
13 DataIn[5] _035_ 0.004628
14 DataIn[5] clknet_3_0__leaf_clk 0.013883
15 DataIn[5] line_state[0] 0.004628
16 DataIn[5] rst_n 0.004628
17 DataIn[5] rx_receiving 0.004628
18 DataIn[5] txdp 0.004628
*RES
1 DataIn[5] DataIn\[5\]:2 24.585900
2 DataIn[5] DataIn\[5\]:3 36.061900
3 DataIn[5] DataIn\[5\]:4 24.840400
4 DataIn[5] DataIn\[5\]:5 36.174700
5 DataIn[5] _321_:Q 0.000000
6 DataIn[5] _242_:I1 0.000000
*END

*D_NET DataIn\[6\] 7.082912
*CONN
*P DataIn\[6\] B
*I _322_:Q B
*I _238_:I1 B
*CAP
1 DataIn[6] 6.677322
2 DataIn[6] DataIn[7] 0.004628
3 DataIn[6] DataOut[0] 0.004628
4 DataIn[6] DataOut[1] 0.004628
5 DataIn[6] DataOut[2] 0.004628
6 DataIn[6] DataOut[5] 0.004628
7 DataIn[6] Reset 0.004628
8 DataIn[6] VDD 0.162962
9 DataIn[6] VSS 0.177837
10 DataIn[6] _114_ 0.004628
11 DataIn[6] clknet_3_0__leaf_clk 0.009255
12 DataIn[6] clknet_3_1__leaf_clk 0.004628
13 DataIn[6] line_state[0] 0.004628
14 DataIn[6] rst_n 0.004628
15 DataIn[6] rx_receiving 0.004628
16 DataIn[6] txdp 0.004628
*RES
1 DataIn[6] DataIn\[6\]:2 36.348600
2 DataIn[6] DataIn\[6\]:3 27.810700
3 DataIn[6] DataIn\[6\]:4 37.274600
4 DataIn[6] DataIn\[6\]:5 27.051100
5 DataIn[6] _322_:Q 0.000000
6 DataIn[6] _238_:I1 0.000000
*END

*D_NET DataIn\[7\] 8.086416
*CONN
*P DataIn\[7\] B
*I _323_:Q B
*I _248_:I1 B
*CAP
1 DataIn[7] 7.820541
2 DataIn[7] DataOut[0] 0.004628
3 DataIn[7] DataOut[1] 0.004628
4 DataIn[7] DataOut[2] 0.004628
5 DataIn[7] DataOut[3] 0.004628
6 DataIn[7] DataOut[5] 0.004628
7 DataIn[7] DataOut[6] 0.004628
8 DataIn[7] Reset 0.004628
9 DataIn[7] RxValid 0.004628
10 DataIn[7] TxReady 0.004628
11 DataIn[7] TxValid 0.004628
12 DataIn[7] VDD 0.014875
13 DataIn[7] VSS 0.165478
14 DataIn[7] _114_ 0.002218
15 DataIn[7] line_state[0] 0.004628
16 DataIn[7] line_state[1] 0.004628
17 DataIn[7] rst_n 0.004628
18 DataIn[7] rx_receiving 0.004628
19 DataIn[7] rxdm 0.004628
20 DataIn[7] rxdp 0.004628
21 DataIn[7] txdm 0.004628
22 DataIn[7] txdp 0.004628
*RES
1 DataIn[7] DataIn\[7\]:2 42.906800
2 DataIn[7] DataIn\[7\]:3 24.525500
3 DataIn[7] DataIn\[7\]:4 42.566500
4 DataIn[7] DataIn\[7\]:5 24.355200
5 DataIn[7] _323_:Q 0.000000
6 DataIn[7] _248_:I1 0.000000
*END

*D_NET DataOut\[0\] 2.004612
*CONN
*P DataOut\[0\] B
*I _218_:A1 B
*CAP
1 DataOut[0] 1.918668
2 DataOut[0] DataOut[1] 0.013883
3 DataOut[0] DataOut[2] 0.004628
4 DataOut[0] DataOut[3] 0.004628
5 DataOut[0] DataOut[5] 0.004628
6 DataOut[0] DataOut[6] 0.013883
7 DataOut[0] TxReady 0.004628
8 DataOut[0] TxValid 0.005454
9 DataOut[0] VSS 0.014875
10 DataOut[0] _085_ 0.009255
11 DataOut[0] line_state[1] 0.000826
12 DataOut[0] rxdm 0.004628
13 DataOut[0] txdm 0.004628
*RES
1 DataOut[0] DataOut\[0\]:2 43.050000
2 DataOut[0] DataOut\[0\]:3 43.050000
3 DataOut[0] _218_:A1 0.000000
*END

*D_NET DataOut\[1\] 4.926772
*CONN
*P DataOut\[1\] B
*I _215_:A1 B
*CAP
1 DataOut[1] 4.681519
2 DataOut[1] DataOut[3] 0.009255
3 DataOut[1] DataOut[6] 0.004628
4 DataOut[1] RxError 0.004628
5 DataOut[1] TxReady 0.004628
6 DataOut[1] TxValid 0.009255
7 DataOut[1] VDD 0.061756
8 DataOut[1] VSS 0.062015
9 DataOut[1] _054_ 0.004628
10 DataOut[1] _085_ 0.010259
11 DataOut[1] _086_ 0.004628
12 DataOut[1] _090_ 0.004628
13 DataOut[1] _096_ 0.004628
14 DataOut[1] _098_ 0.003801
15 DataOut[1] _100_ 0.004628
16 DataOut[1] clk 0.004628
17 DataOut[1] clknet_3_4__leaf_clk 0.028748
18 DataOut[1] line_state[1] 0.004628
19 DataOut[1] rxdm 0.004628
20 DataOut[1] rxdp 0.004628
21 DataOut[1] txdm 0.004628
*RES
1 DataOut[1] DataOut\[1\]:2 49.489100
2 DataOut[1] DataOut\[1\]:3 49.489200
3 DataOut[1] _215_:A1 0.000000
*END

*D_NET DataOut\[2\] 2.598979
*CONN
*P DataOut\[2\] B
*I _212_:A1 B
*CAP
1 DataOut[2] 2.509894
2 DataOut[2] DataOut[3] 0.009255
3 DataOut[2] DataOut[5] 0.004628
4 DataOut[2] DataOut[6] 0.004628
5 DataOut[2] TxReady 0.004628
6 DataOut[2] TxValid 0.009255
7 DataOut[2] VDD 0.014875
8 DataOut[2] VSS 0.014875
9 DataOut[2] _096_ 0.003801
10 DataOut[2] _100_ 0.004628
11 DataOut[2] line_state[1] 0.004628
12 DataOut[2] rxdm 0.004628
13 DataOut[2] rxdp 0.004628
14 DataOut[2] txdm 0.004628
*RES
1 DataOut[2] DataOut\[2\]:2 44.451000
2 DataOut[2] DataOut\[2\]:3 44.451100
3 DataOut[2] _212_:A1 0.000000
*END

*D_NET DataOut\[3\] 3.224906
*CONN
*P DataOut\[3\] B
*I _209_:A1 B
*CAP
1 DataOut[3] 3.059727
2 DataOut[3] DataOut[5] 0.009255
3 DataOut[3] TxReady 0.004628
4 DataOut[3] TxValid 0.004628
5 DataOut[3] VDD 0.032006
6 DataOut[3] VSS 0.044624
7 DataOut[3] _016_ 0.003801
8 DataOut[3] _054_ 0.004628
9 DataOut[3] _085_ 0.009255
10 DataOut[3] _086_ 0.004628
11 DataOut[3] _094_ 0.013877
12 DataOut[3] _096_ 0.004628
13 DataOut[3] _097_ 0.004628
14 DataOut[3] _100_ 0.005454
15 DataOut[3] _101_ 0.000627
16 DataOut[3] clk 0.004628
17 DataOut[3] clknet_3_4__leaf_clk 0.004628
18 DataOut[3] line_state[1] 0.004628
19 DataOut[3] rxdp 0.004628
*RES
1 DataOut[3] DataOut\[3\]:2 45.603200
2 DataOut[3] DataOut\[3\]:3 45.603200
3 DataOut[3] _209_:A1 0.000000
*END

*D_NET DataOut\[4\] 1.952437
*CONN
*P DataOut\[4\] B
*I _206_:A1 B
*CAP
1 DataOut[4] 1.880877
2 DataOut[4] DataOut[7] 0.004628
3 DataOut[4] RxError 0.004628
4 DataOut[4] TxValid 0.004628
5 DataOut[4] VDD 0.017159
6 DataOut[4] VSS 0.014875
7 DataOut[4] _018_ 0.004628
8 DataOut[4] _092_ 0.011758
9 DataOut[4] clk 0.004628
10 DataOut[4] clknet_3_4__leaf_clk 0.004628
*RES
1 DataOut[4] DataOut\[4\]:2 42.822400
2 DataOut[4] DataOut\[4\]:3 42.822400
3 DataOut[4] _206_:A1 0.000000
*END

*D_NET DataOut\[5\] 4.403082
*CONN
*P DataOut\[5\] B
*I _203_:A1 B
*CAP
1 DataOut[5] 4.149877
2 DataOut[5] DataOut[6] 0.004628
3 DataOut[5] Reset 0.004628
4 DataOut[5] TxReady 0.004628
5 DataOut[5] TxValid 0.009255
6 DataOut[5] VDD 0.088092
7 DataOut[5] VSS 0.068755
8 DataOut[5] _054_ 0.004628
9 DataOut[5] _085_ 0.023139
10 DataOut[5] _086_ 0.004628
11 DataOut[5] _090_ 0.003801
12 DataOut[5] _096_ 0.004628
13 DataOut[5] _100_ 0.004628
14 DataOut[5] clk 0.004628
15 DataOut[5] line_state[1] 0.004628
16 DataOut[5] rxdm 0.004628
17 DataOut[5] rxdp 0.009255
18 DataOut[5] txdm 0.004628
*RES
1 DataOut[5] DataOut\[5\]:2 48.303100
2 DataOut[5] DataOut\[5\]:3 48.303000
3 DataOut[5] _203_:A1 0.000000
*END

*D_NET DataOut\[6\] 2.567578
*CONN
*P DataOut\[6\] B
*I _198_:A1 B
*CAP
1 DataOut[6] 2.463997
2 DataOut[6] TxReady 0.004628
3 DataOut[6] VDD 0.021272
4 DataOut[6] VSS 0.029750
5 DataOut[6] _085_ 0.004628
6 DataOut[6] _086_ 0.013877
7 DataOut[6] _096_ 0.015542
8 DataOut[6] line_state[1] 0.004628
9 DataOut[6] rxdm 0.004628
10 DataOut[6] txdm 0.004628
*RES
1 DataOut[6] DataOut\[6\]:2 44.253800
2 DataOut[6] DataOut\[6\]:3 44.253800
3 DataOut[6] _198_:A1 0.000000
*END

*D_NET DataOut\[7\] 4.997706
*CONN
*P DataOut\[7\] B
*I _257_:A1 B
*CAP
1 DataOut[7] 4.724602
2 DataOut[7] TxValid 0.004628
3 DataOut[7] VDD 0.093981
4 DataOut[7] VSS 0.090540
5 DataOut[7] _054_ 0.009255
6 DataOut[7] _086_ 0.004628
7 DataOut[7] _088_ 0.004628
8 DataOut[7] _091_ 0.004628
9 DataOut[7] _092_ 0.006280
10 DataOut[7] _094_ 0.004628
11 DataOut[7] _097_ 0.004628
12 DataOut[7] _099_ 0.004628
13 DataOut[7] _101_ 0.004628
14 DataOut[7] _123_ 0.017513
15 DataOut[7] clknet_0_clk 0.004628
16 DataOut[7] clknet_3_4__leaf_clk 0.013883
*RES
1 DataOut[7] DataOut\[7\]:2 49.305000
2 DataOut[7] DataOut\[7\]:3 49.305000
3 DataOut[7] _257_:A1 0.000000
*END

*D_NET OpMode\[0\] 0.055463
*CONN
*P OpMode\[0\] B
*CAP
1 OpMode\[0\]:2 0.055463
*RES
1 OpMode[0] OpMode\[0\]:2 0.167100
*END

*D_NET OpMode\[1\] 0.055463
*CONN
*P OpMode\[1\] B
*CAP
1 OpMode\[1\]:2 0.055463
*RES
1 OpMode[1] OpMode\[1\]:2 0.167100
*END

*D_NET Q 0.282617
*CONN
*P Q B
*CAP
1 Q:1 0.282617
*RES
1 Q:1 Q:2 0.437600
2 Q:1 Q:3 0.437600
*END

*D_NET Q 0.282617
*CONN
*P Q B
*CAP
1 Q:1 0.282617
*RES
1 Q:1 Q:2 0.437600
2 Q:1 Q:3 0.437600
*END

*D_NET Reset 4.890869
*CONN
*P Reset B
*I _233_:A3 B
*I _148_:A2 B
*CAP
1 Reset 4.746933
2 Reset VDD 0.071795
3 Reset VSS 0.032722
4 Reset _009_ 0.003801
5 Reset _053_ 0.003801
6 Reset _114_ 0.004628
7 Reset clknet_3_1__leaf_clk 0.004628
8 Reset line_state[0] 0.004628
9 Reset rx_receiving 0.004628
10 Reset rx_shift[4] 0.008677
11 Reset txdp 0.004628
*RES
1 Reset Reset:2 50.747800
2 Reset Reset:3 18.367900
3 Reset Reset:4 70.462800
4 Reset Reset:5 42.874700
5 Reset Reset:6 65.966500
6 Reset Reset:7 45.529400
7 Reset _233_:A3 0.000000
8 Reset _148_:A2 0.000000
*END

*D_NET RxError 4.098123
*CONN
*P RxError B
*I _325_:Q B
*CAP
1 RxError 3.885636
2 RxError TxValid 0.023139
3 RxError VDD 0.067384
4 RxError VSS 0.061803
5 RxError _054_ 0.009255
6 RxError _085_ 0.009255
7 RxError _086_ 0.004628
8 RxError _090_ 0.004628
9 RxError _091_ 0.004628
10 RxError _094_ 0.004628
11 RxError _097_ 0.004628
12 RxError _101_ 0.004628
13 RxError clknet_3_4__leaf_clk 0.013883
*RES
1 RxError RxError:2 8.850300
2 RxError RxError:3 8.850300
3 RxError _325_:Q 0.000000
*END

*D_NET RxValid 1.062759
*CONN
*P RxValid B
*I _324_:Q B
*CAP
1 RxValid 1.043256
2 RxValid VSS 0.014875
3 RxValid txdp 0.004628
*RES
1 RxValid RxValid:2 2.141200
2 RxValid RxValid:3 2.141200
3 RxValid _324_:Q 0.000000
*END

*D_NET SuspendM 0.055463
*CONN
*P SuspendM B
*CAP
1 SuspendM:2 0.055463
*RES
1 SuspendM SuspendM:2 0.167100
*END

*D_NET TermSelect 0.055463
*CONN
*P TermSelect B
*CAP
1 TermSelect:2 0.055463
*RES
1 TermSelect TermSelect:2 0.167100
*END

*D_NET TxReady 5.648819
*CONN
*P TxReady B
*I _174_:ZN B
*CAP
1 TxReady 5.425666
2 TxReady TxValid 0.004628
3 TxReady VDD 0.100918
4 TxReady VSS 0.094467
5 TxReady _054_ 0.004628
6 TxReady clk 0.004628
7 TxReady clknet_3_4__leaf_clk 0.004628
8 TxReady line_state[1] 0.004628
9 TxReady rxdp 0.004628
*RES
1 TxReady TxReady:2 12.417600
2 TxReady TxReady:3 12.417700
3 TxReady _174_:ZN 0.000000
*END

*D_NET TxValid 13.392499
*CONN
*P TxValid B
*I _200_:C B
*I _196_:B B
*I _186_:I1 B
*I _166_:A2 B
*I _162_:A2 B
*CAP
1 TxValid 12.753774
2 TxValid VDD 0.152995
3 TxValid VSS 0.214197
4 TxValid _007_ 0.004628
5 TxValid _018_ 0.004628
6 TxValid _054_ 0.009255
7 TxValid _055_ 0.004628
8 TxValid _056_ 0.009255
9 TxValid _064_ 0.009255
10 TxValid _065_ 0.007933
11 TxValid _067_ 0.004558
12 TxValid _076_ 0.004628
13 TxValid _085_ 0.009255
14 TxValid _086_ 0.004628
15 TxValid _087_ 0.003801
16 TxValid _088_ 0.031051
17 TxValid _091_ 0.004628
18 TxValid _092_ 0.011079
19 TxValid _094_ 0.004628
20 TxValid _097_ 0.018818
21 TxValid _099_ 0.004628
22 TxValid _101_ 0.004628
23 TxValid _123_ 0.004628
24 TxValid clk 0.004628
25 TxValid clknet_0_clk 0.009255
26 TxValid clknet_3_4__leaf_clk 0.020164
27 TxValid int_rst_n 0.034047
28 TxValid line_state[1] 0.004628
29 TxValid rxdm 0.004628
30 TxValid rxdp 0.004628
31 TxValid tx_state[0] 0.014541
32 TxValid tx_state[3] 0.009846
33 TxValid txdm 0.004628
*RES
1 TxValid TxValid:2 20.887700
2 TxValid TxValid:3 40.984400
3 TxValid TxValid:4 32.974100
4 TxValid TxValid:5 46.834000
5 TxValid TxValid:6 31.046500
6 TxValid TxValid:7 37.838000
7 TxValid TxValid:8 43.429400
8 TxValid TxValid:9 63.837300
9 TxValid TxValid:10 62.176000
10 TxValid TxValid:11 42.793600
11 TxValid TxValid:12 84.962600
12 TxValid TxValid:13 88.784800
13 TxValid _200_:C 0.000000
14 TxValid _196_:B 0.000000
15 TxValid _186_:I1 0.000000
16 TxValid _166_:A2 0.000000
17 TxValid _162_:A2 0.000000
*END

*D_NET VDD 599.454327
*CONN
*P VDD B
*CAP
1 VDD 567.430412
2 VDD VSS 12.636645
3 VDD _000_ 0.014875
4 VDD _002_ 0.014875
5 VDD _003_ 0.014875
6 VDD _004_ 0.014875
7 VDD _005_ 0.021272
8 VDD _006_ 0.014875
9 VDD _007_ 0.014875
10 VDD _009_ 0.185717
11 VDD _011_ 0.029750
12 VDD _012_ 0.014875
13 VDD _013_ 0.014875
14 VDD _014_ 0.014875
15 VDD _015_ 0.014875
16 VDD _016_ 0.014875
17 VDD _017_ 0.014875
18 VDD _018_ 0.022759
19 VDD _019_ 0.014875
20 VDD _020_ 0.016249
21 VDD _024_ 0.014875
22 VDD _025_ 0.014875
23 VDD _026_ 0.014875
24 VDD _027_ 0.014875
25 VDD _030_ 0.014875
26 VDD _033_ 0.014875
27 VDD _035_ 0.014875
28 VDD _037_ 0.014875
29 VDD _038_ 0.014875
30 VDD _040_ 0.014875
31 VDD _041_ 0.116242
32 VDD _043_ 0.014875
33 VDD _044_ 0.035447
34 VDD _047_ 0.014875
35 VDD _049_ 0.014875
36 VDD _050_ 0.014875
37 VDD _051_ 0.014875
38 VDD _052_ 0.017116
39 VDD _053_ 0.014875
40 VDD _054_ 0.870609
41 VDD _055_ 0.162962
42 VDD _056_ 0.270839
43 VDD _057_ 0.096421
44 VDD _060_ 0.014875
45 VDD _061_ 0.175688
46 VDD _063_ 0.022759
47 VDD _065_ 0.014875
48 VDD _066_ 0.017504
49 VDD _068_ 0.045362
50 VDD _069_ 0.014875
51 VDD _070_ 0.003140
52 VDD _071_ 0.027270
53 VDD _072_ 0.042799
54 VDD _073_ 0.014875
55 VDD _074_ 0.032103
56 VDD _075_ 0.029750
57 VDD _076_ 0.088918
58 VDD _077_ 0.091490
59 VDD _078_ 0.176020
60 VDD _082_ 0.017504
61 VDD _083_ 0.092295
62 VDD _084_ 0.014875
63 VDD _085_ 0.160813
64 VDD _086_ 0.074043
65 VDD _088_ 0.294744
66 VDD _089_ 0.014875
67 VDD _092_ 0.074043
68 VDD _094_ 0.091203
69 VDD _097_ 0.014875
70 VDD _099_ 0.022759
71 VDD _100_ 0.014875
72 VDD _102_ 0.018015
73 VDD _103_ 0.139988
74 VDD _104_ 0.029750
75 VDD _105_ 0.074043
76 VDD _106_ 0.074043
77 VDD _110_ 0.130414
78 VDD _111_ 0.228274
79 VDD _113_ 0.015508
80 VDD _114_ 0.262840
81 VDD _117_ 0.088918
82 VDD _118_ 0.029750
83 VDD _119_ 0.014875
84 VDD _120_ 0.090571
85 VDD _121_ 0.014875
86 VDD _123_ 0.074043
87 VDD _124_ 0.030907
88 VDD _125_ 0.014875
89 VDD _130_ 0.014875
90 VDD _132_ 0.014875
91 VDD _133_ 0.014875
92 VDD _134_ 0.021321
93 VDD _135_ 0.017504
94 VDD _136_ 0.014875
95 VDD _138_ 0.014875
96 VDD _139_ 0.032006
97 VDD _140_ 0.037634
98 VDD _141_ 0.088918
99 VDD _142_ 0.074043
100 VDD _145_ 0.014875
101 VDD bus_reset 0.109491
102 VDD clk 0.104559
103 VDD clknet_0_clk 0.423006
104 VDD clknet_3_0__leaf_clk 0.328841
105 VDD clknet_3_1__leaf_clk 0.333382
106 VDD clknet_3_2__leaf_clk 0.312424
107 VDD clknet_3_3__leaf_clk 0.346360
108 VDD clknet_3_4__leaf_clk 0.276196
109 VDD clknet_3_5__leaf_clk 0.250947
110 VDD clknet_3_6__leaf_clk 0.157474
111 VDD clknet_3_7__leaf_clk 0.274349
112 VDD cur_byte[0] 0.030487
113 VDD cur_byte[2] 0.088918
114 VDD cur_byte[4] 0.014875
115 VDD cur_byte[6] 0.082803
116 VDD dec_data_bit 0.068764
117 VDD dec_data_valid 0.188548
118 VDD dec_line_bit 0.027270
119 VDD dec_line_valid 0.103793
120 VDD destuff_in_valid 0.157673
121 VDD destuff_out_bit 0.065197
122 VDD destuff_out_valid 0.209292
123 VDD destuff_stuff_err 0.015670
124 VDD enc_line_bit 0.060656
125 VDD enc_line_valid 0.103793
126 VDD eop_pulse 0.052071
127 VDD int_rst_n 0.684121
128 VDD line_state[0] 0.144014
129 VDD line_state[1] 0.127883
130 VDD next_byte[0] 0.124759
131 VDD next_byte[1] 0.074043
132 VDD next_byte[2] 0.074043
133 VDD next_byte[3] 0.017116
134 VDD next_byte[4] 0.014875
135 VDD next_byte[5] 0.091203
136 VDD next_byte[6] 0.029750
137 VDD next_valid 0.017159
138 VDD rst_n 0.020572
139 VDD rx_bitcnt[0] 0.099826
140 VDD rx_bitcnt[1] 0.014875
141 VDD rx_bitcnt[2] 0.029750
142 VDD rx_receiving 0.209569
143 VDD rx_shift[1] 0.027270
144 VDD rx_shift[2] 0.088918
145 VDD rx_shift[3] 0.103793
146 VDD rx_shift[4] 0.108526
147 VDD rx_shift[5] 0.029750
148 VDD rx_shift[6] 0.162466
149 VDD rx_shift[7] 0.044624
150 VDD rxdm 0.094946
151 VDD rxdp 0.047518
152 VDD stuff_in_ready 0.287007
153 VDD stuff_out_bit 0.044624
154 VDD stuffer_in_bit 0.237052
155 VDD stuffer_in_valid 0.245009
156 VDD sync_next 0.014875
157 VDD tx_bitidx[0] 0.082328
158 VDD tx_bitidx[1] 0.154220
159 VDD tx_bitidx[2] 0.096279
160 VDD tx_state[0] 0.189745
161 VDD tx_state[1] 0.014875
162 VDD tx_state[2] 0.088918
163 VDD tx_state[3] 0.285983
164 VDD tx_state[4] 0.044285
165 VDD tx_state[5] 0.035589
166 VDD tx_state[6] 0.014875
167 VDD tx_state[7] 0.014875
168 VDD txdm 0.210689
169 VDD txdp 0.164280
170 VDD u_decoder\/_00_ 0.030039
171 VDD u_decoder\/_02_ 0.029750
172 VDD u_decoder\/_03_ 0.074043
173 VDD u_decoder\/_04_ 0.030545
174 VDD u_decoder\/_06_ 0.074781
175 VDD u_decoder\/_07_ 0.013094
176 VDD u_decoder\/_08_ 0.049417
177 VDD u_decoder\/prev_line 0.029750
178 VDD u_destuffer\/_00_ 0.014875
179 VDD u_destuffer\/_03_ 0.014875
180 VDD u_destuffer\/_04_ 0.014875
181 VDD u_destuffer\/_05_ 0.030907
182 VDD u_destuffer\/_06_ 0.088918
183 VDD u_destuffer\/_07_ 0.029750
184 VDD u_destuffer\/_08_ 0.039415
185 VDD u_destuffer\/_09_ 0.166344
186 VDD u_destuffer\/_10_ 0.075271
187 VDD u_destuffer\/_11_ 0.113987
188 VDD u_destuffer\/_12_ 0.014875
189 VDD u_destuffer\/_14_ 0.022047
190 VDD u_destuffer\/_17_ 0.014875
191 VDD u_destuffer\/_18_ 0.021651
192 VDD u_destuffer\/_19_ 0.014875
193 VDD u_destuffer\/_20_ 0.038108
194 VDD u_destuffer\/_21_ 0.014875
195 VDD u_destuffer\/ones[0] 0.138814
196 VDD u_destuffer\/ones[1] 0.076996
197 VDD u_destuffer\/ones[2] 0.045359
198 VDD u_encoder\/_00_ 0.034482
199 VDD u_encoder\/_01_ 0.074043
200 VDD u_encoder\/_02_ 0.053880
201 VDD u_encoder\/_04_ 0.032006
202 VDD u_encoder\/_05_ 0.044624
203 VDD u_encoder\/_06_ 0.022759
204 VDD u_eop_detector\/_00_ 0.044624
205 VDD u_eop_detector\/_01_ 0.021155
206 VDD u_eop_detector\/_03_ 0.026136
207 VDD u_eop_detector\/_06_ 0.014875
208 VDD u_eop_detector\/_07_ 0.014875
209 VDD u_eop_detector\/_08_ 0.065896
210 VDD u_eop_detector\/_09_ 0.213684
211 VDD u_eop_detector\/_10_ 0.093087
212 VDD u_eop_detector\/_11_ 0.014875
213 VDD u_eop_detector\/_12_ 0.088918
214 VDD u_eop_detector\/_13_ 0.014875
215 VDD u_eop_detector\/_14_ 0.068033
216 VDD u_eop_detector\/_15_ 0.089492
217 VDD u_eop_detector\/_16_ 0.014875
218 VDD u_eop_detector\/_17_ 0.032006
219 VDD u_eop_detector\/_18_ 0.096580
220 VDD u_eop_detector\/_19_ 0.014875
221 VDD u_eop_detector\/_20_ 0.014875
222 VDD u_eop_detector\/_21_ 0.014875
223 VDD u_eop_detector\/_23_ 0.014875
224 VDD u_eop_detector\/_24_ 0.014875
225 VDD u_eop_detector\/_25_ 0.014875
226 VDD u_eop_detector\/se0_count[0] 0.018062
227 VDD u_eop_detector\/se0_count[1] 0.093847
228 VDD u_eop_detector\/se0_count[2] 0.048147
229 VDD u_eop_detector\/se0_count[3] 0.084187
230 VDD u_eop_detector\/se0_count[4] 0.014875
231 VDD u_eop_detector\/se0_count[5] 0.014875
232 VDD u_line_state\/_0_ 0.014875
233 VDD u_line_state\/_1_ 0.014875
234 VDD u_stuffer\/_00_ 0.020510
235 VDD u_stuffer\/_01_ 0.074043
236 VDD u_stuffer\/_02_ 0.040162
237 VDD u_stuffer\/_06_ 0.118668
238 VDD u_stuffer\/_07_ 0.032890
239 VDD u_stuffer\/_08_ 0.018138
240 VDD u_stuffer\/_09_ 0.021120
241 VDD u_stuffer\/_10_ 0.033843
242 VDD u_stuffer\/_11_ 0.195782
243 VDD u_stuffer\/_12_ 0.088422
244 VDD u_stuffer\/_13_ 0.066937
245 VDD u_stuffer\/_14_ 0.051401
246 VDD u_stuffer\/_15_ 0.040162
247 VDD u_stuffer\/_16_ 0.018015
248 VDD u_stuffer\/_17_ 0.096787
249 VDD u_stuffer\/_18_ 0.014875
250 VDD u_stuffer\/ones[0] 0.154959
251 VDD u_stuffer\/ones[1] 0.052705
252 VDD u_stuffer\/ones[2] 0.055037
253 VDD u_sync_detector\/_00_ 0.014875
254 VDD u_sync_detector\/_01_ 0.021416
255 VDD u_sync_detector\/_03_ 0.014875
256 VDD u_sync_detector\/_04_ 0.014875
257 VDD u_sync_detector\/_06_ 0.073548
258 VDD u_sync_detector\/_07_ 0.035207
259 VDD u_sync_detector\/_09_ 0.133543
260 VDD u_sync_detector\/_10_ 0.029750
261 VDD u_sync_detector\/_11_ 0.106933
262 VDD u_sync_detector\/_12_ 0.021272
263 VDD u_sync_detector\/_13_ 0.014875
264 VDD u_sync_detector\/_14_ 0.014875
265 VDD u_sync_detector\/_15_ 0.014875
266 VDD u_sync_detector\/match[0] 0.051790
267 VDD u_sync_detector\/match[1] 0.026270
268 VDD u_sync_detector\/match[2] 0.120155
269 VDD u_sync_detector\/match[3] 0.029750
*RES
1 VDD VDD:2 0.306800
2 VDD VDD:3 0.304500
3 VDD VDD:4 0.300300
4 VDD VDD:5 0.300300
5 VDD VDD:6 0.298700
6 VDD VDD:7 0.295900
7 VDD VDD:8 0.294200
8 VDD VDD:9 0.292000
9 VDD VDD:10 0.289800
10 VDD VDD:11 0.286200
11 VDD VDD:12 0.284600
12 VDD VDD:13 0.281600
13 VDD VDD:14 0.277300
14 VDD VDD:15 0.277300
15 VDD VDD:16 0.183400
16 VDD VDD:17 0.183400
17 VDD VDD:18 0.183700
18 VDD VDD:19 0.183700
19 VDD VDD:20 0.248400
20 VDD VDD:21 0.250300
21 VDD VDD:22 0.254200
22 VDD VDD:23 0.257000
23 VDD VDD:24 0.258500
24 VDD VDD:25 0.260700
25 VDD VDD:26 0.262600
26 VDD VDD:27 0.286100
27 VDD VDD:28 0.282100
28 VDD VDD:29 0.280400
29 VDD VDD:30 0.278200
30 VDD VDD:31 0.276600
31 VDD VDD:32 0.274400
32 VDD VDD:33 0.175700
33 VDD VDD:34 0.175700
34 VDD VDD:35 0.174000
35 VDD VDD:36 0.174000
36 VDD VDD:37 0.179100
37 VDD VDD:38 0.179800
38 VDD VDD:39 0.179800
39 VDD VDD:40 0.167500
40 VDD VDD:41 0.167500
41 VDD VDD:42 0.166300
42 VDD VDD:43 0.165200
43 VDD VDD:44 0.164100
44 VDD VDD:45 0.162100
45 VDD VDD:46 0.162100
46 VDD VDD:47 0.155900
47 VDD VDD:48 0.156600
48 VDD VDD:49 0.217900
49 VDD VDD:50 0.217900
50 VDD VDD:51 0.215900
51 VDD VDD:52 0.212400
52 VDD VDD:53 0.155400
53 VDD VDD:54 0.262900
54 VDD VDD:55 0.260500
55 VDD VDD:56 0.251700
56 VDD VDD:57 0.248900
57 VDD VDD:58 0.248900
58 VDD VDD:59 0.141000
59 VDD VDD:60 0.141000
60 VDD VDD:61 0.240500
61 VDD VDD:62 0.240500
62 VDD VDD:63 0.243700
63 VDD VDD:64 0.246100
64 VDD VDD:65 0.248600
65 VDD VDD:66 0.251800
66 VDD VDD:67 0.256100
67 VDD VDD:68 0.266200
68 VDD VDD:69 0.232700
69 VDD VDD:70 0.232700
70 VDD VDD:71 0.230100
71 VDD VDD:72 0.224900
72 VDD VDD:73 0.221700
73 VDD VDD:74 0.214000
74 VDD VDD:75 0.214000
75 VDD VDD:76 0.202000
76 VDD VDD:77 0.199000
77 VDD VDD:78 0.199000
78 VDD VDD:79 0.172000
79 VDD VDD:80 0.169700
80 VDD VDD:81 0.167400
81 VDD VDD:82 0.165200
82 VDD VDD:83 0.233700
83 VDD VDD:84 0.233700
84 VDD VDD:85 0.230900
85 VDD VDD:86 0.220000
86 VDD VDD:87 0.220000
87 VDD VDD:88 0.210700
88 VDD VDD:89 0.207400
89 VDD VDD:90 0.198800
90 VDD VDD:91 0.195700
91 VDD VDD:92 0.187000
92 VDD VDD:93 0.184400
93 VDD VDD:94 0.181200
94 VDD VDD:95 0.156700
95 VDD VDD:96 0.156700
96 VDD VDD:97 0.211500
97 VDD VDD:98 0.214500
98 VDD VDD:99 0.043600
99 VDD VDD:100 0.043600
100 VDD VDD:101 0.044500
101 VDD VDD:102 0.044500
102 VDD VDD:103 0.130800
103 VDD VDD:104 0.134300
104 VDD VDD:105 0.137800
105 VDD VDD:106 0.143800
106 VDD VDD:107 0.226300
107 VDD VDD:108 0.184500
108 VDD VDD:109 0.181000
109 VDD VDD:110 0.155600
110 VDD VDD:111 0.155600
111 VDD VDD:112 0.146500
112 VDD VDD:113 0.097500
113 VDD VDD:114 0.094600
114 VDD VDD:115 0.209000
115 VDD VDD:116 0.084500
116 VDD VDD:117 0.081400
117 VDD VDD:118 0.015700
118 VDD VDD:119 0.017800
119 VDD VDD:120 0.112300
120 VDD VDD:121 0.112300
121 VDD VDD:122 0.115600
122 VDD VDD:123 0.097200
123 VDD VDD:124 0.097200
124 VDD VDD:125 0.046600
125 VDD VDD:126 0.043400
126 VDD VDD:127 0.065300
127 VDD VDD:128 0.068900
128 VDD VDD:129 0.132800
129 VDD VDD:130 0.136500
130 VDD VDD:131 0.199400
131 VDD VDD:132 0.199400
132 VDD VDD:133 0.202200
133 VDD VDD:134 0.207900
134 VDD VDD:135 0.207900
135 VDD VDD:136 0.230900
136 VDD VDD:137 0.234300
137 VDD VDD:138 0.174300
138 VDD VDD:139 0.170900
139 VDD VDD:140 0.066100
140 VDD VDD:141 0.069500
141 VDD VDD:142 0.152500
142 VDD VDD:143 0.155900
143 VDD VDD:144 0.158700
144 VDD VDD:145 0.161900
145 VDD VDD:146 0.165000
146 VDD VDD:147 0.165000
147 VDD VDD:148 0.037500
148 VDD VDD:149 0.035100
149 VDD VDD:150 0.031600
150 VDD VDD:151 0.029400
151 VDD VDD:152 0.069700
152 VDD VDD:153 0.073100
153 VDD VDD:154 0.075800
154 VDD VDD:155 0.077800
155 VDD VDD:156 0.215900
156 VDD VDD:157 0.213000
157 VDD VDD:158 0.193900
158 VDD VDD:159 0.188200
159 VDD VDD:160 0.188200
160 VDD VDD:161 0.164800
161 VDD VDD:162 0.161600
162 VDD VDD:163 0.131800
163 VDD VDD:164 0.129000
164 VDD VDD:165 0.118500
165 VDD VDD:166 0.115800
166 VDD VDD:167 0.070900
167 VDD VDD:168 0.130300
168 VDD VDD:169 0.133600
169 VDD VDD:170 0.211000
170 VDD VDD:171 0.231900
171 VDD VDD:172 0.228800
172 VDD VDD:173 0.186300
173 VDD VDD:174 0.184200
174 VDD VDD:175 0.280100
175 VDD VDD:176 0.283200
176 VDD VDD:177 0.260400
177 VDD VDD:178 0.258100
178 VDD VDD:179 0.234000
179 VDD VDD:180 0.232100
180 VDD VDD:181 0.274300
181 VDD VDD:182 0.276400
182 VDD VDD:183 0.156100
183 VDD VDD:184 0.156600
184 VDD VDD:185 0.166400
185 VDD VDD:186 0.153000
186 VDD VDD:187 0.143800
187 VDD VDD:188 0.159800
188 VDD VDD:189 0.160800
189 VDD VDD:190 0.158900
190 VDD VDD:191 0.157300
191 VDD VDD:192 0.149900
192 VDD VDD:193 0.146800
193 VDD VDD:194 0.140700
194 VDD VDD:195 0.158100
195 VDD VDD:196 0.137700
196 VDD VDD:197 0.134700
197 VDD VDD:198 0.163000
198 VDD VDD:199 0.167800
199 VDD VDD:200 0.161800
200 VDD VDD:201 0.156100
201 VDD VDD:202 0.156100
202 VDD VDD:203 0.160800
203 VDD VDD:204 0.191000
204 VDD VDD:205 0.158400
205 VDD VDD:206 0.202000
206 VDD VDD:207 0.207500
207 VDD VDD:208 0.177000
208 VDD VDD:209 0.167500
209 VDD VDD:210 0.172200
210 VDD VDD:211 0.196700
211 VDD VDD:212 0.170000
212 VDD VDD:213 0.163100
213 VDD VDD:214 0.210400
214 VDD VDD:215 0.204900
215 VDD VDD:216 0.174700
216 VDD VDD:217 0.179500
217 VDD VDD:218 0.071900
218 VDD VDD:219 0.108700
219 VDD VDD:220 0.108700
220 VDD VDD:221 0.145300
221 VDD VDD:222 0.142500
222 VDD VDD:223 0.134000
223 VDD VDD:224 0.111500
224 VDD VDD:225 0.120000
225 VDD VDD:226 0.228100
226 VDD VDD:227 0.128400
227 VDD VDD:228 0.148100
228 VDD VDD:229 0.222400
229 VDD VDD:230 0.139700
230 VDD VDD:231 0.219600
231 VDD VDD:232 0.216800
232 VDD VDD:233 0.213900
233 VDD VDD:234 0.125600
234 VDD VDD:235 0.114300
235 VDD VDD:236 0.122800
236 VDD VDD:237 0.136900
237 VDD VDD:238 0.225300
238 VDD VDD:239 0.131200
239 VDD VDD:240 0.205000
240 VDD VDD:241 0.117100
241 VDD VDD:242 0.151000
242 VDD VDD:243 0.211100
243 VDD VDD:244 0.151000
244 VDD VDD:245 0.211100
245 VDD VDD:246 0.243400
246 VDD VDD:247 0.167600
247 VDD VDD:248 0.243700
248 VDD VDD:249 0.163900
249 VDD VDD:250 0.228100
250 VDD VDD:251 0.231600
251 VDD VDD:252 0.064500
252 VDD VDD:253 0.061500
253 VDD VDD:254 0.206400
254 VDD VDD:255 0.214300
255 VDD VDD:256 0.199100
256 VDD VDD:257 0.213700
257 VDD VDD:258 0.057100
258 VDD VDD:259 0.060300
259 VDD VDD:260 0.223100
260 VDD VDD:261 0.126800
261 VDD VDD:262 0.077400
262 VDD VDD:263 0.166800
263 VDD VDD:264 0.163000
264 VDD VDD:265 0.127600
265 VDD VDD:266 0.220300
266 VDD VDD:267 0.149200
267 VDD VDD:268 0.255500
268 VDD VDD:269 0.255500
269 VDD VDD:270 0.145100
270 VDD VDD:271 0.148700
271 VDD VDD:272 0.222000
272 VDD VDD:273 0.227500
273 VDD VDD:274 0.216500
274 VDD VDD:275 0.213700
275 VDD VDD:276 0.224800
276 VDD VDD:277 0.219200
277 VDD VDD:278 0.145800
278 VDD VDD:279 0.143000
279 VDD VDD:280 0.153200
280 VDD VDD:281 0.212300
281 VDD VDD:282 0.215100
282 VDD VDD:283 0.155700
283 VDD VDD:284 0.217900
284 VDD VDD:285 0.160800
285 VDD VDD:286 0.158300
286 VDD VDD:287 0.258700
287 VDD VDD:288 0.261100
288 VDD VDD:289 0.263500
289 VDD VDD:290 0.266000
290 VDD VDD:291 0.268400
291 VDD VDD:292 0.165900
292 VDD VDD:293 0.270900
293 VDD VDD:294 0.189500
294 VDD VDD:295 0.277300
295 VDD VDD:296 0.163400
296 VDD VDD:297 0.223500
297 VDD VDD:298 0.275200
298 VDD VDD:299 0.220700
299 VDD VDD:300 0.268900
300 VDD VDD:301 0.271000
301 VDD VDD:302 0.191800
302 VDD VDD:303 0.266800
303 VDD VDD:304 0.273100
304 VDD VDD:305 0.040400
305 VDD VDD:306 0.285900
306 VDD VDD:307 0.225000
307 VDD VDD:308 0.168000
308 VDD VDD:309 0.156100
309 VDD VDD:310 0.169300
310 VDD VDD:311 0.164200
311 VDD VDD:312 0.195900
312 VDD VDD:313 0.169300
313 VDD VDD:314 0.195900
314 VDD VDD:315 0.169300
315 VDD VDD:316 0.193900
316 VDD VDD:317 0.166700
317 VDD VDD:318 0.193900
318 VDD VDD:319 0.166700
319 VDD VDD:320 0.278700
320 VDD VDD:321 0.087300
321 VDD VDD:322 0.058700
322 VDD VDD:323 0.257300
323 VDD VDD:324 0.158800
324 VDD VDD:325 0.140700
325 VDD VDD:326 0.066500
326 VDD VDD:327 0.189500
327 VDD VDD:328 0.221100
328 VDD VDD:329 0.077800
329 VDD VDD:330 0.189500
330 VDD VDD:331 0.195700
331 VDD VDD:332 0.072500
332 VDD VDD:333 0.221100
333 VDD VDD:334 0.077800
334 VDD VDD:335 0.092000
335 VDD VDD:336 0.054300
336 VDD VDD:337 0.210000
337 VDD VDD:338 0.258500
338 VDD VDD:339 0.212800
339 VDD VDD:340 0.199300
340 VDD VDD:341 0.228200
341 VDD VDD:342 0.234300
342 VDD VDD:343 0.225500
343 VDD VDD:344 0.222800
344 VDD VDD:345 0.186300
345 VDD VDD:346 0.190700
346 VDD VDD:347 0.189200
347 VDD VDD:348 0.187700
348 VDD VDD:349 0.072300
349 VDD VDD:350 0.165300
350 VDD VDD:351 0.187900
351 VDD VDD:352 0.075100
352 VDD VDD:353 0.183200
353 VDD VDD:354 0.197500
354 VDD VDD:355 0.184700
355 VDD VDD:356 0.192200
356 VDD VDD:357 0.256200
357 VDD VDD:358 0.218600
358 VDD VDD:359 0.216100
359 VDD VDD:360 0.215700
360 VDD VDD:361 0.193700
361 VDD VDD:362 0.181700
362 VDD VDD:363 0.254000
363 VDD VDD:364 0.199200
364 VDD VDD:365 0.181800
365 VDD VDD:366 0.218600
366 VDD VDD:367 0.215700
367 VDD VDD:368 0.193700
368 VDD VDD:369 0.181700
369 VDD VDD:370 0.236700
370 VDD VDD:371 0.254000
371 VDD VDD:372 0.199200
372 VDD VDD:373 0.181800
373 VDD VDD:374 0.218600
374 VDD VDD:375 0.079900
375 VDD VDD:376 0.223900
376 VDD VDD:377 0.077500
377 VDD VDD:378 0.220800
378 VDD VDD:379 0.218100
379 VDD VDD:380 0.161100
380 VDD VDD:381 0.075200
381 VDD VDD:382 0.130000
382 VDD VDD:383 0.245100
383 VDD VDD:384 0.215500
384 VDD VDD:385 0.246400
385 VDD VDD:386 0.072900
386 VDD VDD:387 0.127200
387 VDD VDD:388 0.158300
388 VDD VDD:389 0.200600
389 VDD VDD:390 0.118600
390 VDD VDD:391 0.200600
391 VDD VDD:392 0.118600
392 VDD VDD:393 0.115300
393 VDD VDD:394 0.197400
394 VDD VDD:395 0.024000
395 VDD VDD:396 0.295100
396 VDD VDD:397 0.030200
397 VDD VDD:398 0.214600
398 VDD VDD:399 0.180200
399 VDD VDD:400 0.037700
400 VDD VDD:401 0.256100
401 VDD VDD:402 0.288200
402 VDD VDD:403 0.226500
403 VDD VDD:404 0.113700
404 VDD VDD:405 0.242800
405 VDD VDD:406 0.222400
406 VDD VDD:407 0.024000
407 VDD VDD:408 0.295100
408 VDD VDD:409 0.030200
409 VDD VDD:410 0.214600
410 VDD VDD:411 0.180200
411 VDD VDD:412 0.146500
412 VDD VDD:413 0.136600
413 VDD VDD:414 0.037700
414 VDD VDD:415 0.080600
415 VDD VDD:416 0.075800
416 VDD VDD:417 0.256100
417 VDD VDD:418 0.280800
418 VDD VDD:419 0.288200
419 VDD VDD:420 0.027500
420 VDD VDD:421 0.226500
421 VDD VDD:422 0.113700
422 VDD VDD:423 0.070100
423 VDD VDD:424 0.172600
424 VDD VDD:425 0.242800
425 VDD VDD:426 0.222400
426 VDD VDD:427 0.227500
427 VDD VDD:428 0.013800
428 VDD VDD:429 0.014500
429 VDD VDD:430 0.262400
430 VDD VDD:431 0.013700
431 VDD VDD:432 0.120700
432 VDD VDD:433 0.262400
433 VDD VDD:434 0.013700
434 VDD VDD:435 0.120700
435 VDD VDD:436 0.273700
436 VDD VDD:437 0.236200
437 VDD VDD:438 0.271200
438 VDD VDD:439 0.233500
439 VDD VDD:440 0.268700
440 VDD VDD:441 0.230800
441 VDD VDD:442 0.239000
442 VDD VDD:443 0.177200
443 VDD VDD:444 0.234300
444 VDD VDD:445 0.235700
445 VDD VDD:446 0.277800
446 VDD VDD:447 0.049300
447 VDD VDD:448 0.228100
448 VDD VDD:449 0.062500
449 VDD VDD:450 0.177200
450 VDD VDD:451 0.234300
451 VDD VDD:452 0.235700
452 VDD VDD:453 0.277800
453 VDD VDD:454 0.049300
454 VDD VDD:455 0.263700
455 VDD VDD:456 0.219800
456 VDD VDD:457 0.208800
457 VDD VDD:458 0.206100
458 VDD VDD:459 0.202500
459 VDD VDD:460 0.202500
460 VDD VDD:461 0.152100
461 VDD VDD:462 0.197200
462 VDD VDD:463 0.134000
463 VDD VDD:464 0.124500
464 VDD VDD:465 0.200500
465 VDD VDD:466 0.178300
466 VDD VDD:467 0.015100
467 VDD VDD:468 0.157900
468 VDD VDD:469 0.219800
469 VDD VDD:470 0.115400
470 VDD VDD:471 0.197100
471 VDD VDD:472 0.156300
472 VDD VDD:473 0.065700
473 VDD VDD:474 0.124800
474 VDD VDD:475 0.155800
475 VDD VDD:476 0.215100
476 VDD VDD:477 0.100700
477 VDD VDD:478 0.103100
478 VDD VDD:479 0.066700
479 VDD VDD:480 0.152100
480 VDD VDD:481 0.197200
481 VDD VDD:482 0.173600
482 VDD VDD:483 0.167400
483 VDD VDD:484 0.134000
484 VDD VDD:485 0.124500
485 VDD VDD:486 0.077000
486 VDD VDD:487 0.213000
487 VDD VDD:488 0.208000
488 VDD VDD:489 0.237000
489 VDD VDD:490 0.200500
490 VDD VDD:491 0.178300
491 VDD VDD:492 0.015100
492 VDD VDD:493 0.026500
493 VDD VDD:494 0.230000
494 VDD VDD:495 0.142800
495 VDD VDD:496 0.051800
496 VDD VDD:497 0.104600
497 VDD VDD:498 0.137500
498 VDD VDD:499 0.154600
499 VDD VDD:500 0.157900
500 VDD VDD:501 0.095800
501 VDD VDD:502 0.150400
502 VDD VDD:503 0.219800
503 VDD VDD:504 0.115400
504 VDD VDD:505 0.105300
505 VDD VDD:506 0.197100
506 VDD VDD:507 0.156300
507 VDD VDD:508 0.065700
508 VDD VDD:509 0.124800
509 VDD VDD:510 0.016200
510 VDD VDD:511 0.221300
511 VDD VDD:512 0.155800
512 VDD VDD:513 0.215100
513 VDD VDD:514 0.100700
514 VDD VDD:515 0.103100
515 VDD VDD:516 0.160400
516 VDD VDD:517 0.066700
517 VDD VDD:518 0.090600
518 VDD VDD:519 0.149800
519 VDD VDD:520 0.037000
520 VDD VDD:521 0.024800
521 VDD VDD:522 0.210700
522 VDD VDD:523 0.188000
523 VDD VDD:524 0.185900
524 VDD VDD:525 0.056000
525 VDD VDD:526 0.149800
526 VDD VDD:527 0.037000
527 VDD VDD:528 0.024800
528 VDD VDD:529 0.210700
529 VDD VDD:530 0.188000
530 VDD VDD:531 0.185900
531 VDD VDD:532 0.056000
532 VDD VDD:533 0.182600
533 VDD VDD:534 0.034500
534 VDD VDD:535 0.052600
535 VDD VDD:536 0.023400
536 VDD VDD:537 0.147600
537 VDD VDD:538 0.184600
538 VDD VDD:539 0.207500
539 VDD VDD:540 0.095200
540 VDD VDD:541 0.146100
541 VDD VDD:542 0.110500
542 VDD VDD:543 0.240300
543 VDD VDD:544 0.081300
544 VDD VDD:545 0.105200
545 VDD VDD:546 0.094700
546 VDD VDD:547 0.110200
547 VDD VDD:548 0.146700
548 VDD VDD:549 0.085000
549 VDD VDD:550 0.106900
550 VDD VDD:551 0.098400
551 VDD VDD:552 0.096600
552 VDD VDD:553 0.242600
553 VDD VDD:554 0.167600
554 VDD VDD:555 0.032200
555 VDD VDD:556 0.077200
556 VDD VDD:557 0.117700
557 VDD VDD:558 0.194600
558 VDD VDD:559 0.212900
559 VDD VDD:560 0.057300
560 VDD VDD:561 0.112400
561 VDD VDD:562 0.049700
562 VDD VDD:563 0.181700
563 VDD VDD:564 0.163500
564 VDD VDD:565 0.124400
565 VDD VDD:566 0.162300
566 VDD VDD:567 0.145500
567 VDD VDD:568 0.152100
568 VDD VDD:569 0.129300
569 VDD VDD:570 0.149400
570 VDD VDD:571 0.022300
571 VDD VDD:572 0.063700
572 VDD VDD:573 0.254400
573 VDD VDD:574 0.203200
574 VDD VDD:575 0.179700
575 VDD VDD:576 0.204600
576 VDD VDD:577 0.176700
577 VDD VDD:578 0.190000
578 VDD VDD:579 0.225800
579 VDD VDD:580 0.221800
580 VDD VDD:581 0.204700
581 VDD VDD:582 0.167600
582 VDD VDD:583 0.032200
583 VDD VDD:584 0.077200
584 VDD VDD:585 0.117700
585 VDD VDD:586 0.194600
586 VDD VDD:587 0.125100
587 VDD VDD:588 0.171900
588 VDD VDD:589 0.212900
589 VDD VDD:590 0.057300
590 VDD VDD:591 0.112400
591 VDD VDD:592 0.204600
592 VDD VDD:593 0.049700
593 VDD VDD:594 0.181700
594 VDD VDD:595 0.173400
595 VDD VDD:596 0.163500
596 VDD VDD:597 0.124400
597 VDD VDD:598 0.162300
598 VDD VDD:599 0.145500
599 VDD VDD:600 0.152100
600 VDD VDD:601 0.178300
601 VDD VDD:602 0.129300
602 VDD VDD:603 0.149400
603 VDD VDD:604 0.022300
604 VDD VDD:605 0.213500
605 VDD VDD:606 0.063700
606 VDD VDD:607 0.254400
607 VDD VDD:608 0.203200
608 VDD VDD:609 0.179700
609 VDD VDD:610 0.204600
610 VDD VDD:611 0.176700
611 VDD VDD:612 0.190000
612 VDD VDD:613 0.225800
613 VDD VDD:614 0.221800
614 VDD VDD:615 0.204700
615 VDD VDD:616 0.226300
616 VDD VDD:617 0.157900
617 VDD VDD:618 0.078900
618 VDD VDD:619 0.080300
619 VDD VDD:620 0.105300
620 VDD VDD:621 0.133600
621 VDD VDD:622 0.199900
622 VDD VDD:623 0.141400
623 VDD VDD:624 0.188200
624 VDD VDD:625 0.139000
625 VDD VDD:626 0.082400
626 VDD VDD:627 0.104100
627 VDD VDD:628 0.132500
628 VDD VDD:629 0.158600
629 VDD VDD:630 0.084000
630 VDD VDD:631 0.202900
631 VDD VDD:632 0.191500
632 VDD VDD:633 0.098600
633 VDD VDD:634 0.109100
634 VDD VDD:635 0.193300
635 VDD VDD:636 0.109000
636 VDD VDD:637 0.265400
637 VDD VDD:638 0.104400
638 VDD VDD:639 0.100900
639 VDD VDD:640 0.148200
640 VDD VDD:641 0.085200
641 VDD VDD:642 0.138100
642 VDD VDD:643 0.132800
643 VDD VDD:644 0.245000
644 VDD VDD:645 0.205700
645 VDD VDD:646 0.160200
646 VDD VDD:647 0.086600
647 VDD VDD:648 0.087800
648 VDD VDD:649 0.098600
649 VDD VDD:650 0.109100
650 VDD VDD:651 0.193300
651 VDD VDD:652 0.109000
652 VDD VDD:653 0.265400
653 VDD VDD:654 0.104400
654 VDD VDD:655 0.100900
655 VDD VDD:656 0.148200
656 VDD VDD:657 0.085200
657 VDD VDD:658 0.138100
658 VDD VDD:659 0.132800
659 VDD VDD:660 0.245000
660 VDD VDD:661 0.205700
661 VDD VDD:662 0.160200
662 VDD VDD:663 0.086600
663 VDD VDD:664 0.087800
664 VDD VDD:665 0.101200
665 VDD VDD:666 0.128600
666 VDD VDD:667 0.089400
667 VDD VDD:668 0.118600
668 VDD VDD:669 0.194800
669 VDD VDD:670 0.073200
670 VDD VDD:671 0.232100
671 VDD VDD:672 0.119800
672 VDD VDD:673 0.197100
673 VDD VDD:674 0.090900
674 VDD VDD:675 0.234900
675 VDD VDD:676 0.100800
676 VDD VDD:677 0.073000
677 VDD VDD:678 0.128000
678 VDD VDD:679 0.213600
679 VDD VDD:680 0.162500
680 VDD VDD:681 0.242700
681 VDD VDD:682 0.228700
682 VDD VDD:683 0.255400
683 VDD VDD:684 0.186000
684 VDD VDD:685 0.141400
685 VDD VDD:686 0.220000
686 VDD VDD:687 0.204200
687 VDD VDD:688 0.152700
688 VDD VDD:689 0.164800
689 VDD VDD:690 0.234300
690 VDD VDD:691 0.186800
691 VDD VDD:692 0.213600
692 VDD VDD:693 0.162600
693 VDD VDD:694 0.162500
694 VDD VDD:695 0.242700
695 VDD VDD:696 0.154900
696 VDD VDD:697 0.228700
697 VDD VDD:698 0.166000
698 VDD VDD:699 0.218800
699 VDD VDD:700 0.255400
700 VDD VDD:701 0.186000
701 VDD VDD:702 0.220500
702 VDD VDD:703 0.141400
703 VDD VDD:704 0.220000
704 VDD VDD:705 0.204200
705 VDD VDD:706 0.077600
706 VDD VDD:707 0.152700
707 VDD VDD:708 0.184900
708 VDD VDD:709 0.164800
709 VDD VDD:710 0.146200
710 VDD VDD:711 0.234300
711 VDD VDD:712 0.129100
712 VDD VDD:713 0.186800
713 VDD VDD:714 0.143600
714 VDD VDD:715 0.125900
715 VDD VDD:716 0.072100
716 VDD VDD:717 0.118100
717 VDD VDD:718 0.217000
718 VDD VDD:719 0.210300
719 VDD VDD:720 0.198100
720 VDD VDD:721 0.146400
721 VDD VDD:722 0.212000
722 VDD VDD:723 0.247200
723 VDD VDD:724 0.175800
724 VDD VDD:725 0.173300
725 VDD VDD:726 0.098500
726 VDD VDD:727 0.140200
727 VDD VDD:728 0.116700
728 VDD VDD:729 0.130900
729 VDD VDD:730 0.127800
730 VDD VDD:731 0.124700
731 VDD VDD:732 0.121600
732 VDD VDD:733 0.152900
733 VDD VDD:734 0.143300
734 VDD VDD:735 0.150100
735 VDD VDD:736 0.168400
736 VDD VDD:737 0.170900
737 VDD VDD:738 0.100800
738 VDD VDD:739 0.147400
739 VDD VDD:740 0.148700
740 VDD VDD:741 0.150100
741 VDD VDD:742 0.136200
742 VDD VDD:743 0.134700
743 VDD VDD:744 0.133300
744 VDD VDD:745 0.131900
745 VDD VDD:746 0.151600
746 VDD VDD:747 0.153100
747 VDD VDD:748 0.154700
748 VDD VDD:749 0.191400
749 VDD VDD:750 0.140400
750 VDD VDD:751 0.136600
751 VDD VDD:752 0.133700
752 VDD VDD:753 0.121000
753 VDD VDD:754 0.137700
754 VDD VDD:755 0.069400
755 VDD VDD:756 0.144500
756 VDD VDD:757 0.147600
757 VDD VDD:758 0.162900
758 VDD VDD:759 0.097700
759 VDD VDD:760 0.147300
760 VDD VDD:761 0.122600
761 VDD VDD:762 0.125200
762 VDD VDD:763 0.139300
763 VDD VDD:764 0.068100
764 VDD VDD:765 0.165300
765 VDD VDD:766 0.075700
766 VDD VDD:767 0.070600
767 VDD VDD:768 0.203400
768 VDD VDD:769 0.073200
769 VDD VDD:770 0.127800
770 VDD VDD:771 0.130700
771 VDD VDD:772 0.015700
772 VDD VDD:773 0.014600
773 VDD VDD:774 0.098600
774 VDD VDD:775 0.158900
775 VDD VDD:776 0.136900
776 VDD VDD:777 0.155200
777 VDD VDD:778 0.130700
778 VDD VDD:779 0.127600
779 VDD VDD:780 0.094300
780 VDD VDD:781 0.096400
781 VDD VDD:782 0.171000
782 VDD VDD:783 0.168100
783 VDD VDD:784 0.158100
784 VDD VDD:785 0.165200
785 VDD VDD:786 0.155100
786 VDD VDD:787 0.014100
787 VDD VDD:788 0.119500
788 VDD VDD:789 0.087800
789 VDD VDD:790 0.168500
790 VDD VDD:791 0.152500
791 VDD VDD:792 0.133800
792 VDD VDD:793 0.162300
793 VDD VDD:794 0.249900
794 VDD VDD:795 0.096300
795 VDD VDD:796 0.014300
796 VDD VDD:797 0.094200
797 VDD VDD:798 0.092100
798 VDD VDD:799 0.205800
799 VDD VDD:800 0.207500
800 VDD VDD:801 0.171600
801 VDD VDD:802 0.159800
802 VDD VDD:803 0.228900
803 VDD VDD:804 0.118500
804 VDD VDD:805 0.170700
805 VDD VDD:806 0.204600
806 VDD VDD:807 0.137100
807 VDD VDD:808 0.190000
808 VDD VDD:809 0.127900
809 VDD VDD:810 0.188300
810 VDD VDD:811 0.193700
811 VDD VDD:812 0.213400
812 VDD VDD:813 0.170600
813 VDD VDD:814 0.247100
814 VDD VDD:815 0.136100
815 VDD VDD:816 0.060200
816 VDD VDD:817 0.154500
817 VDD VDD:818 0.180800
818 VDD VDD:819 0.120100
819 VDD VDD:820 0.249600
820 VDD VDD:821 0.215200
821 VDD VDD:822 0.173900
822 VDD VDD:823 0.149500
823 VDD VDD:824 0.134100
824 VDD VDD:825 0.216400
825 VDD VDD:826 0.201600
826 VDD VDD:827 0.244400
827 VDD VDD:828 0.165400
828 VDD VDD:829 0.192800
829 VDD VDD:830 0.174600
830 VDD VDD:831 0.161700
831 VDD VDD:832 0.167700
832 VDD VDD:833 0.163100
833 VDD VDD:834 0.189000
834 VDD VDD:835 0.153500
835 VDD VDD:836 0.186500
836 VDD VDD:837 0.138800
837 VDD VDD:838 0.231700
838 VDD VDD:839 0.183400
839 VDD VDD:840 0.230400
840 VDD VDD:841 0.157300
841 VDD VDD:842 0.258900
842 VDD VDD:843 0.207200
843 VDD VDD:844 0.063200
844 VDD VDD:845 0.244900
845 VDD VDD:846 0.217700
846 VDD VDD:847 0.210600
847 VDD VDD:848 0.252700
848 VDD VDD:849 0.159500
849 VDD VDD:850 0.251900
850 VDD VDD:851 0.196000
851 VDD VDD:852 0.208400
852 VDD VDD:853 0.127800
853 VDD VDD:854 0.161000
854 VDD VDD:855 0.166000
855 VDD VDD:856 0.085100
856 VDD VDD:857 0.122600
857 VDD VDD:858 0.139600
858 VDD VDD:859 0.140000
859 VDD VDD:860 0.241600
860 VDD VDD:861 0.177700
861 VDD VDD:862 0.144900
862 VDD VDD:863 0.099600
863 VDD VDD:864 0.106800
864 VDD VDD:865 0.078300
865 VDD VDD:866 0.019100
866 VDD VDD:867 0.234200
867 VDD VDD:868 0.164700
868 VDD VDD:869 0.198400
869 VDD VDD:870 0.092300
870 VDD VDD:871 0.149800
871 VDD VDD:872 0.254300
872 VDD VDD:873 0.050900
873 VDD VDD:874 0.164500
874 VDD VDD:875 0.090200
875 VDD VDD:876 0.205600
876 VDD VDD:877 0.215700
877 VDD VDD:878 0.232500
878 VDD VDD:879 0.079600
879 VDD VDD:880 0.017300
880 VDD VDD:881 0.260600
881 VDD VDD:882 0.174800
882 VDD VDD:883 0.224100
883 VDD VDD:884 0.105200
884 VDD VDD:885 0.074800
885 VDD VDD:886 0.029200
886 VDD VDD:887 0.141700
887 VDD VDD:888 0.143300
888 VDD VDD:889 0.140500
889 VDD VDD:890 0.130600
890 VDD VDD:891 0.165400
891 VDD VDD:892 0.200200
892 VDD VDD:893 0.219500
893 VDD VDD:894 0.131000
894 VDD VDD:895 0.154900
895 VDD VDD:896 0.146100
896 VDD VDD:897 0.161000
897 VDD VDD:898 0.090400
898 VDD VDD:899 0.166000
899 VDD VDD:900 0.085100
900 VDD VDD:901 0.122600
901 VDD VDD:902 0.139600
902 VDD VDD:903 0.140000
903 VDD VDD:904 0.241600
904 VDD VDD:905 0.177700
905 VDD VDD:906 0.144900
906 VDD VDD:907 0.099600
907 VDD VDD:908 0.106800
908 VDD VDD:909 0.078300
909 VDD VDD:910 0.019100
910 VDD VDD:911 0.234200
911 VDD VDD:912 0.164700
912 VDD VDD:913 0.198400
913 VDD VDD:914 0.092300
914 VDD VDD:915 0.149800
915 VDD VDD:916 0.254300
916 VDD VDD:917 0.050900
917 VDD VDD:918 0.164500
918 VDD VDD:919 0.090200
919 VDD VDD:920 0.205600
920 VDD VDD:921 0.215700
921 VDD VDD:922 0.232500
922 VDD VDD:923 0.079600
923 VDD VDD:924 0.017300
924 VDD VDD:925 0.260600
925 VDD VDD:926 0.174800
926 VDD VDD:927 0.224100
927 VDD VDD:928 0.105200
928 VDD VDD:929 0.074800
929 VDD VDD:930 0.029200
930 VDD VDD:931 0.055700
931 VDD VDD:932 0.141700
932 VDD VDD:933 0.143300
933 VDD VDD:934 0.140500
934 VDD VDD:935 0.130600
935 VDD VDD:936 0.165400
936 VDD VDD:937 0.200200
937 VDD VDD:938 0.219500
938 VDD VDD:939 0.131000
939 VDD VDD:940 0.154900
940 VDD VDD:941 0.146100
941 VDD VDD:942 0.179800
942 VDD VDD:943 0.198800
943 VDD VDD:944 0.103100
944 VDD VDD:945 0.179700
945 VDD VDD:946 0.204200
946 VDD VDD:947 0.200200
947 VDD VDD:948 0.104400
948 VDD VDD:949 0.146100
949 VDD VDD:950 0.263000
950 VDD VDD:951 0.242700
951 VDD VDD:952 0.108200
952 VDD VDD:953 0.231200
953 VDD VDD:954 0.192800
954 VDD VDD:955 0.194300
955 VDD VDD:956 0.148000
956 VDD VDD:957 0.158700
957 VDD VDD:958 0.083700
958 VDD VDD:959 0.066700
959 VDD VDD:960 0.127800
960 VDD VDD:961 0.211200
961 VDD VDD:962 0.179800
962 VDD VDD:963 0.198800
963 VDD VDD:964 0.103100
964 VDD VDD:965 0.179700
965 VDD VDD:966 0.204200
966 VDD VDD:967 0.200200
967 VDD VDD:968 0.104400
968 VDD VDD:969 0.146100
969 VDD VDD:970 0.263000
970 VDD VDD:971 0.242700
971 VDD VDD:972 0.108200
972 VDD VDD:973 0.231200
973 VDD VDD:974 0.192800
974 VDD VDD:975 0.194300
975 VDD VDD:976 0.148000
976 VDD VDD:977 0.158700
977 VDD VDD:978 0.083700
978 VDD VDD:979 0.066700
979 VDD VDD:980 0.127800
980 VDD VDD:981 0.211200
981 VDD VDD:982 0.228200
982 VDD VDD:983 0.264400
983 VDD VDD:984 0.146000
984 VDD VDD:985 0.101100
985 VDD VDD:986 0.106800
986 VDD VDD:987 0.211500
987 VDD VDD:988 0.245800
988 VDD VDD:989 0.081900
989 VDD VDD:990 0.100500
990 VDD VDD:991 0.206300
991 VDD VDD:992 0.193400
992 VDD VDD:993 0.182300
993 VDD VDD:994 0.191000
994 VDD VDD:995 0.063900
995 VDD VDD:996 0.203200
996 VDD VDD:997 0.197200
997 VDD VDD:998 0.157900
998 VDD VDD:999 0.147500
999 VDD VDD:1000 0.124600
1000 VDD VDD:1001 0.178000
1001 VDD VDD:1002 0.074700
1002 VDD VDD:1003 0.121200
1003 VDD VDD:1004 0.034200
1004 VDD VDD:1005 0.073500
1005 VDD VDD:1006 0.276400
1006 VDD VDD:1007 0.238900
1007 VDD VDD:1008 0.062200
1008 VDD VDD:1009 0.303300
1009 VDD VDD:1010 0.106400
1010 VDD VDD:1011 0.180400
1011 VDD VDD:1012 0.185800
1012 VDD VDD:1013 0.142700
1013 VDD VDD:1014 0.089600
1014 VDD VDD:1015 0.092100
1015 VDD VDD:1016 0.190600
1016 VDD VDD:1017 0.118000
1017 VDD VDD:1018 0.122400
1018 VDD VDD:1019 0.209500
1019 VDD VDD:1020 0.029500
1020 VDD VDD:1021 0.242600
1021 VDD VDD:1022 0.157300
1022 VDD VDD:1023 0.254000
1023 VDD VDD:1024 0.121900
1024 VDD VDD:1025 0.091200
1025 VDD VDD:1026 0.163200
1026 VDD VDD:1027 0.146000
1027 VDD VDD:1028 0.116600
1028 VDD VDD:1029 0.112300
1029 VDD VDD:1030 0.128400
1030 VDD VDD:1031 0.213700
1031 VDD VDD:1032 0.111700
1032 VDD VDD:1033 0.250300
1033 VDD VDD:1034 0.228300
1034 VDD VDD:1035 0.088000
1035 VDD VDD:1036 0.053200
1036 VDD VDD:1037 0.164400
1037 VDD VDD:1038 0.239200
1038 VDD VDD:1039 0.109000
1039 VDD VDD:1040 0.072100
1040 VDD VDD:1041 0.183400
1041 VDD VDD:1042 0.113900
1042 VDD VDD:1043 0.118000
1043 VDD VDD:1044 0.183000
1044 VDD VDD:1045 0.250300
1045 VDD VDD:1046 0.125100
1046 VDD VDD:1047 0.129800
1047 VDD VDD:1048 0.139000
1048 VDD VDD:1049 0.086800
1049 VDD VDD:1050 0.145900
1050 VDD VDD:1051 0.095800
1051 VDD VDD:1052 0.300200
1052 VDD VDD:1053 0.054700
1053 VDD VDD:1054 0.119600
1054 VDD VDD:1055 0.190600
1055 VDD VDD:1056 0.109400
1056 VDD VDD:1057 0.025800
1057 VDD VDD:1058 0.163000
1058 VDD VDD:1059 0.075500
1059 VDD VDD:1060 0.090500
1060 VDD VDD:1061 0.242300
1061 VDD VDD:1062 0.273000
1062 VDD VDD:1063 0.033800
1063 VDD VDD:1064 0.108300
1064 VDD VDD:1065 0.216800
1065 VDD VDD:1066 0.091200
1066 VDD VDD:1067 0.160900
1067 VDD VDD:1068 0.061800
1068 VDD VDD:1069 0.155800
1069 VDD VDD:1070 0.246700
1070 VDD VDD:1071 0.118800
1071 VDD VDD:1072 0.225100
1072 VDD VDD:1073 0.206100
1073 VDD VDD:1074 0.108600
1074 VDD VDD:1075 0.190800
1075 VDD VDD:1076 0.059300
1076 VDD VDD:1077 0.065400
1077 VDD VDD:1078 0.099600
1078 VDD VDD:1079 0.170200
1079 VDD VDD:1080 0.007600
1080 VDD VDD:1081 0.260600
1081 VDD VDD:1082 0.230200
1082 VDD VDD:1083 0.147500
1083 VDD VDD:1084 0.220100
1084 VDD VDD:1085 0.208100
1085 VDD VDD:1086 0.039300
1086 VDD VDD:1087 0.091600
1087 VDD VDD:1088 0.120800
1088 VDD VDD:1089 0.115600
1089 VDD VDD:1090 0.139400
1090 VDD VDD:1091 0.141800
1091 VDD VDD:1092 0.143000
1092 VDD VDD:1093 0.283900
1093 VDD VDD:1094 0.162500
1094 VDD VDD:1095 0.226900
1095 VDD VDD:1096 0.064500
1096 VDD VDD:1097 0.099300
1097 VDD VDD:1098 0.119100
1098 VDD VDD:1099 0.197300
1099 VDD VDD:1100 0.254900
1100 VDD VDD:1101 0.120700
1101 VDD VDD:1102 0.188100
1102 VDD VDD:1103 0.234000
1103 VDD VDD:1104 0.149900
1104 VDD VDD:1105 0.111800
1105 VDD VDD:1106 0.100200
1106 VDD VDD:1107 0.074000
1107 VDD VDD:1108 0.090300
1108 VDD VDD:1109 0.088700
1109 VDD VDD:1110 0.108600
1110 VDD VDD:1111 0.190800
1111 VDD VDD:1112 0.059300
1112 VDD VDD:1113 0.065400
1113 VDD VDD:1114 0.099600
1114 VDD VDD:1115 0.170200
1115 VDD VDD:1116 0.007600
1116 VDD VDD:1117 0.260600
1117 VDD VDD:1118 0.230200
1118 VDD VDD:1119 0.147500
1119 VDD VDD:1120 0.220100
1120 VDD VDD:1121 0.208100
1121 VDD VDD:1122 0.039300
1122 VDD VDD:1123 0.091600
1123 VDD VDD:1124 0.120800
1124 VDD VDD:1125 0.115600
1125 VDD VDD:1126 0.139400
1126 VDD VDD:1127 0.141800
1127 VDD VDD:1128 0.143000
1128 VDD VDD:1129 0.283900
1129 VDD VDD:1130 0.162500
1130 VDD VDD:1131 0.226900
1131 VDD VDD:1132 0.064500
1132 VDD VDD:1133 0.099300
1133 VDD VDD:1134 0.119100
1134 VDD VDD:1135 0.197300
1135 VDD VDD:1136 0.254900
1136 VDD VDD:1137 0.120700
1137 VDD VDD:1138 0.188100
1138 VDD VDD:1139 0.234000
1139 VDD VDD:1140 0.149900
1140 VDD VDD:1141 0.111800
1141 VDD VDD:1142 0.100200
1142 VDD VDD:1143 0.074000
1143 VDD VDD:1144 0.090300
1144 VDD VDD:1145 0.088700
1145 VDD VDD:1146 0.175100
1146 VDD VDD:1147 0.200600
1147 VDD VDD:1148 0.083800
1148 VDD VDD:1149 0.276200
1149 VDD VDD:1150 0.071600
1150 VDD VDD:1151 0.258600
1151 VDD VDD:1152 0.157000
1152 VDD VDD:1153 0.249900
1153 VDD VDD:1154 0.187400
1154 VDD VDD:1155 0.099700
1155 VDD VDD:1156 0.155600
1156 VDD VDD:1157 0.127600
1157 VDD VDD:1158 0.241700
1158 VDD VDD:1159 0.224600
1159 VDD VDD:1160 0.257900
1160 VDD VDD:1161 0.222500
1161 VDD VDD:1162 0.223900
1162 VDD VDD:1163 0.113500
1163 VDD VDD:1164 0.071900
1164 VDD VDD:1165 0.176700
1165 VDD VDD:1166 0.252200
1166 VDD VDD:1167 0.085300
1167 VDD VDD:1168 0.189500
1168 VDD VDD:1169 0.155800
1169 VDD VDD:1170 0.100100
1170 VDD VDD:1171 0.127800
1171 VDD VDD:1172 0.226300
1172 VDD VDD:1173 0.202000
1173 VDD VDD:1174 0.226400
1174 VDD VDD:1175 0.158000
1175 VDD VDD:1176 0.260000
1176 VDD VDD:1177 0.114900
1177 VDD VDD:1178 0.261500
1178 VDD VDD:1179 0.253900
1179 VDD VDD:1180 0.086500
1180 VDD VDD:1181 0.177900
1181 VDD VDD:1182 0.072200
1182 VDD VDD:1183 0.228000
1183 VDD VDD:1184 0.128000
1184 VDD VDD:1185 0.203100
1185 VDD VDD:1186 0.115900
1186 VDD VDD:1187 0.158800
1187 VDD VDD:1188 0.100400
1188 VDD VDD:1189 0.227700
1189 VDD VDD:1190 0.156000
1190 VDD VDD:1191 0.191000
1191 VDD VDD:1192 0.229500
1192 VDD VDD:1193 0.072700
1193 VDD VDD:1194 0.128300
1194 VDD VDD:1195 0.179500
1195 VDD VDD:1196 0.193100
1196 VDD VDD:1197 0.256200
1197 VDD VDD:1198 0.117400
1198 VDD VDD:1199 0.230300
1199 VDD VDD:1200 0.263600
1200 VDD VDD:1201 0.160000
1201 VDD VDD:1202 0.204600
1202 VDD VDD:1203 0.088100
1203 VDD VDD:1204 0.156300
1204 VDD VDD:1205 0.100800
1205 VDD VDD:1206 0.205700
1206 VDD VDD:1207 0.180800
1207 VDD VDD:1208 0.265200
1208 VDD VDD:1209 0.231000
1209 VDD VDD:1210 0.160900
1210 VDD VDD:1211 0.258000
1211 VDD VDD:1212 0.184300
1212 VDD VDD:1213 0.262000
1213 VDD VDD:1214 0.269200
1214 VDD VDD:1215 0.209000
1215 VDD VDD:1216 0.234600
1216 VDD VDD:1217 0.163800
1217 VDD VDD:1218 0.166700
1218 VDD VDD:1219 0.236400
1219 VDD VDD:1220 0.218600
1220 VDD VDD:1221 0.136200
1221 VDD VDD:1222 0.207800
1222 VDD VDD:1223 0.235900
1223 VDD VDD:1224 0.196300
1224 VDD VDD:1225 0.257000
1225 VDD VDD:1226 0.214800
1226 VDD VDD:1227 0.153700
1227 VDD VDD:1228 0.218400
1228 VDD VDD:1229 0.283200
1229 VDD VDD:1230 0.180400
1230 VDD VDD:1231 0.299300
1231 VDD VDD:1232 0.191600
1232 VDD VDD:1233 0.239500
1233 VDD VDD:1234 0.283100
1234 VDD VDD:1235 0.297100
1235 VDD VDD:1236 0.133800
1236 VDD VDD:1237 0.194600
1237 VDD VDD:1238 0.210600
1238 VDD VDD:1239 0.280800
1239 VDD VDD:1240 0.177800
1240 VDD VDD:1241 0.236800
1241 VDD VDD:1242 0.254400
1242 VDD VDD:1243 0.280900
1243 VDD VDD:1244 0.151500
1244 VDD VDD:1245 0.189100
1245 VDD VDD:1246 0.216200
1246 VDD VDD:1247 0.212800
1247 VDD VDD:1248 0.233700
1248 VDD VDD:1249 0.216600
1249 VDD VDD:1250 0.164500
1250 VDD VDD:1251 0.234100
1251 VDD VDD:1252 0.213600
1252 VDD VDD:1253 0.162000
1253 VDD VDD:1254 0.213700
1254 VDD VDD:1255 0.192600
1255 VDD VDD:1256 0.278400
1256 VDD VDD:1257 0.230600
1257 VDD VDD:1258 0.175000
1258 VDD VDD:1259 0.149100
1259 VDD VDD:1260 0.278300
1260 VDD VDD:1261 0.186200
1261 VDD VDD:1262 0.210600
1262 VDD VDD:1263 0.294700
1263 VDD VDD:1264 0.233700
1264 VDD VDD:1265 0.214500
1265 VDD VDD:1266 0.251600
1266 VDD VDD:1267 0.232100
1267 VDD VDD:1268 0.131100
1268 VDD VDD:1269 0.231700
1269 VDD VDD:1270 0.228600
1270 VDD VDD:1271 0.230700
1271 VDD VDD:1272 0.147500
1272 VDD VDD:1273 0.293100
1273 VDD VDD:1274 0.160400
1274 VDD VDD:1275 0.276600
1275 VDD VDD:1276 0.249700
1276 VDD VDD:1277 0.276700
1277 VDD VDD:1278 0.213100
1278 VDD VDD:1279 0.173100
1279 VDD VDD:1280 0.184300
1280 VDD VDD:1281 0.212100
1281 VDD VDD:1282 0.209200
1282 VDD VDD:1283 0.191200
1283 VDD VDD:1284 0.215700
1284 VDD VDD:1285 0.129300
1285 VDD VDD:1286 0.188700
1286 VDD VDD:1287 0.290000
1287 VDD VDD:1288 0.273400
1288 VDD VDD:1289 0.224600
1289 VDD VDD:1290 0.227700
1290 VDD VDD:1291 0.169300
1291 VDD VDD:1292 0.125800
1292 VDD VDD:1293 0.210300
1293 VDD VDD:1294 0.219700
1294 VDD VDD:1295 0.144300
1295 VDD VDD:1296 0.228100
1296 VDD VDD:1297 0.180600
1297 VDD VDD:1298 0.157200
1298 VDD VDD:1299 0.208800
1299 VDD VDD:1300 0.273300
1300 VDD VDD:1301 0.206300
1301 VDD VDD:1302 0.246100
1302 VDD VDD:1303 0.271000
1303 VDD VDD:1304 0.078600
1304 VDD VDD:1305 0.268700
1305 VDD VDD:1306 0.224600
1306 VDD VDD:1307 0.226300
1307 VDD VDD:1308 0.019700
1308 VDD VDD:1309 0.237100
1309 VDD VDD:1310 0.206600
1310 VDD VDD:1311 0.204400
1311 VDD VDD:1312 0.192900
1312 VDD VDD:1313 0.219200
1313 VDD VDD:1314 0.240000
1314 VDD VDD:1315 0.185200
1315 VDD VDD:1316 0.201300
1316 VDD VDD:1317 0.198500
1317 VDD VDD:1318 0.195700
1318 VDD VDD:1319 0.225300
1319 VDD VDD:1320 0.206500
1320 VDD VDD:1321 0.204300
1321 VDD VDD:1322 0.208400
1322 VDD VDD:1323 0.222500
1323 VDD VDD:1324 0.202400
1324 VDD VDD:1325 0.221800
1325 VDD VDD:1326 0.120900
1326 VDD VDD:1327 0.123400
1327 VDD VDD:1328 0.222000
1328 VDD VDD:1329 0.218900
1329 VDD VDD:1330 0.224900
1330 VDD VDD:1331 0.067300
1331 VDD VDD:1332 0.021800
1332 VDD VDD:1333 0.216600
1333 VDD VDD:1334 0.175400
1334 VDD VDD:1335 0.178000
1335 VDD VDD:1336 0.139400
1336 VDD VDD:1337 0.140000
1337 VDD VDD:1338 0.142200
1338 VDD VDD:1339 0.164100
1339 VDD VDD:1340 0.166700
1340 VDD VDD:1341 0.240900
1341 VDD VDD:1342 0.243500
1342 VDD VDD:1343 0.157200
1343 VDD VDD:1344 0.175400
1344 VDD VDD:1345 0.287800
1345 VDD VDD:1346 0.151500
1346 VDD VDD:1347 0.285600
1347 VDD VDD:1348 0.181500
1348 VDD VDD:1349 0.187300
1349 VDD VDD:1350 0.178200
1350 VDD VDD:1351 0.190100
1351 VDD VDD:1352 0.270900
1352 VDD VDD:1353 0.155000
1353 VDD VDD:1354 0.268600
1354 VDD VDD:1355 0.152800
1355 VDD VDD:1356 0.160000
1356 VDD VDD:1357 0.252300
1357 VDD VDD:1358 0.142200
1358 VDD VDD:1359 0.162800
1359 VDD VDD:1360 0.165700
1360 VDD VDD:1361 0.182800
1361 VDD VDD:1362 0.154300
1362 VDD VDD:1363 0.186900
1363 VDD VDD:1364 0.217200
1364 VDD VDD:1365 0.070500
1365 VDD VDD:1366 0.063100
1366 VDD VDD:1367 0.292700
1367 VDD VDD:1368 0.100200
1368 VDD VDD:1369 0.032800
1369 VDD VDD:1370 0.217200
1370 VDD VDD:1371 0.209000
1371 VDD VDD:1372 0.204100
1372 VDD VDD:1373 0.208100
1373 VDD VDD:1374 0.195900
1374 VDD VDD:1375 0.200500
1375 VDD VDD:1376 0.168500
1376 VDD VDD:1377 0.183500
1377 VDD VDD:1378 0.204600
1378 VDD VDD:1379 0.070500
1379 VDD VDD:1380 0.137800
1380 VDD VDD:1381 0.248400
1381 VDD VDD:1382 0.063100
1382 VDD VDD:1383 0.202100
1383 VDD VDD:1384 0.118500
1384 VDD VDD:1385 0.150700
1385 VDD VDD:1386 0.121900
1386 VDD VDD:1387 0.266400
1387 VDD VDD:1388 0.105700
1388 VDD VDD:1389 0.178500
1389 VDD VDD:1390 0.157300
1390 VDD VDD:1391 0.238300
1391 VDD VDD:1392 0.098300
1392 VDD VDD:1393 0.211800
1393 VDD VDD:1394 0.176600
1394 VDD VDD:1395 0.144400
1395 VDD VDD:1396 0.283400
1396 VDD VDD:1397 0.219200
1397 VDD VDD:1398 0.228200
1398 VDD VDD:1399 0.225700
1399 VDD VDD:1400 0.222800
1400 VDD VDD:1401 0.292700
1401 VDD VDD:1402 0.265700
1402 VDD VDD:1403 0.206200
1403 VDD VDD:1404 0.098300
1404 VDD VDD:1405 0.100200
1405 VDD VDD:1406 0.032800
1406 VDD VDD:1407 0.161500
1407 VDD VDD:1408 0.172800
1408 VDD VDD:1409 0.188100
1409 VDD VDD:1410 0.061500
1410 VDD VDD:1411 0.080500
1411 VDD VDD:1412 0.216100
1412 VDD VDD:1413 0.200000
1413 VDD VDD:1414 0.194000
1414 VDD VDD:1415 0.211800
1415 VDD VDD:1416 0.205700
1416 VDD VDD:1417 0.148700
1417 VDD VDD:1418 0.266300
1418 VDD VDD:1419 0.272200
1419 VDD VDD:1420 0.184400
1420 VDD VDD:1421 0.204600
1421 VDD VDD:1422 0.140200
1422 VDD VDD:1423 0.153400
1423 VDD VDD:1424 0.049800
1424 VDD VDD:1425 0.069900
1425 VDD VDD:1426 0.095100
1426 VDD VDD:1427 0.177700
1427 VDD VDD:1428 0.186300
1428 VDD VDD:1429 0.184800
1429 VDD VDD:1430 0.229600
1430 VDD VDD:1431 0.209200
1431 VDD VDD:1432 0.181900
1432 VDD VDD:1433 0.042000
1433 VDD VDD:1434 0.176200
1434 VDD VDD:1435 0.211000
1435 VDD VDD:1436 0.155900
1436 VDD VDD:1437 0.164300
1437 VDD VDD:1438 0.150700
1438 VDD VDD:1439 0.194200
1439 VDD VDD:1440 0.137700
1440 VDD VDD:1441 0.130600
1441 VDD VDD:1442 0.115000
1442 VDD VDD:1443 0.122100
1443 VDD VDD:1444 0.244200
1444 VDD VDD:1445 0.279500
1445 VDD VDD:1446 0.073100
1446 VDD VDD:1447 0.066900
1447 VDD VDD:1448 0.042300
1448 VDD VDD:1449 0.183200
1449 VDD VDD:1450 0.112800
1450 VDD VDD:1451 0.209600
1451 VDD VDD:1452 0.124400
1452 VDD VDD:1453 0.110400
1453 VDD VDD:1454 0.273400
1454 VDD VDD:1455 0.106700
1455 VDD VDD:1456 0.204600
1456 VDD VDD:1457 0.140200
1457 VDD VDD:1458 0.153400
1458 VDD VDD:1459 0.049800
1459 VDD VDD:1460 0.069900
1460 VDD VDD:1461 0.095100
1461 VDD VDD:1462 0.177700
1462 VDD VDD:1463 0.186300
1463 VDD VDD:1464 0.184800
1464 VDD VDD:1465 0.229600
1465 VDD VDD:1466 0.209200
1466 VDD VDD:1467 0.181900
1467 VDD VDD:1468 0.042000
1468 VDD VDD:1469 0.176200
1469 VDD VDD:1470 0.211000
1470 VDD VDD:1471 0.155900
1471 VDD VDD:1472 0.164300
1472 VDD VDD:1473 0.150700
1473 VDD VDD:1474 0.194200
1474 VDD VDD:1475 0.137700
1475 VDD VDD:1476 0.130600
1476 VDD VDD:1477 0.115000
1477 VDD VDD:1478 0.122100
1478 VDD VDD:1479 0.244200
1479 VDD VDD:1480 0.279500
1480 VDD VDD:1481 0.073100
1481 VDD VDD:1482 0.066900
1482 VDD VDD:1483 0.042300
1483 VDD VDD:1484 0.183200
1484 VDD VDD:1485 0.112800
1485 VDD VDD:1486 0.209600
1486 VDD VDD:1487 0.124400
1487 VDD VDD:1488 0.110400
1488 VDD VDD:1489 0.273400
1489 VDD VDD:1490 0.106700
1490 VDD VDD:1491 0.136600
1491 VDD VDD:1492 0.108100
1492 VDD VDD:1493 0.163400
1493 VDD VDD:1494 0.129900
1494 VDD VDD:1495 0.155500
1495 VDD VDD:1496 0.113500
1496 VDD VDD:1497 0.175900
1497 VDD VDD:1498 0.121500
1498 VDD VDD:1499 0.181100
1499 VDD VDD:1500 0.107200
1500 VDD VDD:1501 0.207000
1501 VDD VDD:1502 0.227300
1502 VDD VDD:1503 0.264700
1503 VDD VDD:1504 0.183300
1504 VDD VDD:1505 0.168500
1505 VDD VDD:1506 0.176100
1506 VDD VDD:1507 0.186900
1507 VDD VDD:1508 0.229200
1508 VDD VDD:1509 0.070800
1509 VDD VDD:1510 0.044800
1510 VDD VDD:1511 0.064700
1511 VDD VDD:1512 0.110000
1512 VDD VDD:1513 0.201700
1513 VDD VDD:1514 0.241800
1514 VDD VDD:1515 0.122700
1515 VDD VDD:1516 0.042600
1516 VDD VDD:1517 0.148600
1517 VDD VDD:1518 0.183600
1518 VDD VDD:1519 0.256200
1519 VDD VDD:1520 0.151600
1520 VDD VDD:1521 0.094300
1521 VDD VDD:1522 0.069900
1522 VDD VDD:1523 0.049500
1523 VDD VDD:1524 0.230300
1524 VDD VDD:1525 0.187100
1525 VDD VDD:1526 0.136600
1526 VDD VDD:1527 0.108100
1527 VDD VDD:1528 0.163400
1528 VDD VDD:1529 0.129900
1529 VDD VDD:1530 0.155500
1530 VDD VDD:1531 0.113500
1531 VDD VDD:1532 0.175900
1532 VDD VDD:1533 0.121500
1533 VDD VDD:1534 0.181100
1534 VDD VDD:1535 0.107200
1535 VDD VDD:1536 0.207000
1536 VDD VDD:1537 0.227300
1537 VDD VDD:1538 0.264700
1538 VDD VDD:1539 0.183300
1539 VDD VDD:1540 0.168500
1540 VDD VDD:1541 0.176100
1541 VDD VDD:1542 0.186900
1542 VDD VDD:1543 0.229200
1543 VDD VDD:1544 0.070800
1544 VDD VDD:1545 0.044800
1545 VDD VDD:1546 0.064700
1546 VDD VDD:1547 0.110000
1547 VDD VDD:1548 0.201700
1548 VDD VDD:1549 0.241800
1549 VDD VDD:1550 0.122700
1550 VDD VDD:1551 0.042600
1551 VDD VDD:1552 0.148600
1552 VDD VDD:1553 0.183600
1553 VDD VDD:1554 0.256200
1554 VDD VDD:1555 0.151600
1555 VDD VDD:1556 0.094300
1556 VDD VDD:1557 0.069900
1557 VDD VDD:1558 0.049500
1558 VDD VDD:1559 0.230300
1559 VDD VDD:1560 0.187100
1560 VDD VDD:1561 0.126300
1561 VDD VDD:1562 0.228400
1562 VDD VDD:1563 0.231000
1563 VDD VDD:1564 0.034700
1564 VDD VDD:1565 0.175100
1565 VDD VDD:1566 0.225400
1566 VDD VDD:1567 0.224100
1567 VDD VDD:1568 0.044200
1568 VDD VDD:1569 0.202800
1569 VDD VDD:1570 0.077700
1570 VDD VDD:1571 0.057900
1571 VDD VDD:1572 0.258900
1572 VDD VDD:1573 0.071900
1573 VDD VDD:1574 0.122700
1574 VDD VDD:1575 0.213400
1575 VDD VDD:1576 0.281200
1576 VDD VDD:1577 0.233000
1577 VDD VDD:1578 0.254900
1578 VDD VDD:1579 0.257200
1579 VDD VDD:1580 0.184700
1580 VDD VDD:1581 0.260000
1581 VDD VDD:1582 0.176500
1582 VDD VDD:1583 0.189400
1583 VDD VDD:1584 0.147200
1584 VDD VDD:1585 0.198400
1585 VDD VDD:1586 0.148300
1586 VDD VDD:1587 0.098600
1587 VDD VDD:1588 0.272700
1588 VDD VDD:1589 0.182700
1589 VDD VDD:1590 0.234400
1590 VDD VDD:1591 0.084800
1591 VDD VDD:1592 0.278000
1592 VDD VDD:1593 0.307800
1593 VDD VDD:1594 0.049600
1594 VDD VDD:1595 0.223400
1595 VDD VDD:1596 0.099300
1596 VDD VDD:1597 0.248700
1597 VDD VDD:1598 0.214300
1598 VDD VDD:1599 0.180900
1599 VDD VDD:1600 0.255700
1600 VDD VDD:1601 0.261300
1601 VDD VDD:1602 0.093800
1602 VDD VDD:1603 0.315800
1603 VDD VDD:1604 0.245800
1604 VDD VDD:1605 0.119500
1605 VDD VDD:1606 0.107600
1606 VDD VDD:1607 0.292500
1607 VDD VDD:1608 0.119000
1608 VDD VDD:1609 0.034400
1609 VDD VDD:1610 0.258800
1610 VDD VDD:1611 0.127300
1611 VDD VDD:1612 0.200400
1612 VDD VDD:1613 0.152700
1613 VDD VDD:1614 0.232400
1614 VDD VDD:1615 0.246900
1615 VDD VDD:1616 0.036000
1616 VDD VDD:1617 0.063800
1617 VDD VDD:1618 0.049500
1618 VDD VDD:1619 0.137700
1619 VDD VDD:1620 0.190000
1620 VDD VDD:1621 0.231100
1621 VDD VDD:1622 0.116300
1622 VDD VDD:1623 0.222300
1623 VDD VDD:1624 0.220600
1624 VDD VDD:1625 0.194000
1625 VDD VDD:1626 0.104800
1626 VDD VDD:1627 0.199800
1627 VDD VDD:1628 0.213300
1628 VDD VDD:1629 0.203200
1629 VDD VDD:1630 0.147300
1630 VDD VDD:1631 0.190500
1631 VDD VDD:1632 0.213400
1632 VDD VDD:1633 0.193000
1633 VDD VDD:1634 0.187900
1634 VDD VDD:1635 0.190800
1635 VDD VDD:1636 0.151900
1636 VDD VDD:1637 0.083500
1637 VDD VDD:1638 0.136200
1638 VDD VDD:1639 0.287100
1639 VDD VDD:1640 0.248700
1640 VDD VDD:1641 0.210300
1641 VDD VDD:1642 0.209600
1642 VDD VDD:1643 0.223100
1643 VDD VDD:1644 0.087200
1644 VDD VDD:1645 0.081400
1645 VDD VDD:1646 0.112200
1646 VDD VDD:1647 0.264200
1647 VDD VDD:1648 0.078300
1648 VDD VDD:1649 0.170500
1649 VDD VDD:1650 0.188500
1650 VDD VDD:1651 0.172800
1651 VDD VDD:1652 0.237800
1652 VDD VDD:1653 0.175700
1653 VDD VDD:1654 0.050800
1654 VDD VDD:1655 0.234100
1655 VDD VDD:1656 0.212100
1656 VDD VDD:1657 0.194300
1657 VDD VDD:1658 0.127500
1658 VDD VDD:1659 0.160100
1659 VDD VDD:1660 0.175500
1660 VDD VDD:1661 0.143300
1661 VDD VDD:1662 0.186600
1662 VDD VDD:1663 0.127400
1663 VDD VDD:1664 0.218500
1664 VDD VDD:1665 0.116200
1665 VDD VDD:1666 0.023900
1666 VDD VDD:1667 0.051900
1667 VDD VDD:1668 0.093100
1668 VDD VDD:1669 0.162800
1669 VDD VDD:1670 0.132600
1670 VDD VDD:1671 0.135700
1671 VDD VDD:1672 0.168700
1672 VDD VDD:1673 0.174400
1673 VDD VDD:1674 0.115500
1674 VDD VDD:1675 0.213900
1675 VDD VDD:1676 0.118300
1676 VDD VDD:1677 0.181200
1677 VDD VDD:1678 0.126300
1678 VDD VDD:1679 0.228400
1679 VDD VDD:1680 0.231000
1680 VDD VDD:1681 0.034700
1681 VDD VDD:1682 0.175100
1682 VDD VDD:1683 0.225400
1683 VDD VDD:1684 0.224100
1684 VDD VDD:1685 0.044200
1685 VDD VDD:1686 0.202800
1686 VDD VDD:1687 0.077700
1687 VDD VDD:1688 0.057900
1688 VDD VDD:1689 0.258900
1689 VDD VDD:1690 0.071900
1690 VDD VDD:1691 0.122700
1691 VDD VDD:1692 0.213400
1692 VDD VDD:1693 0.281200
1693 VDD VDD:1694 0.233000
1694 VDD VDD:1695 0.254900
1695 VDD VDD:1696 0.257200
1696 VDD VDD:1697 0.184700
1697 VDD VDD:1698 0.260000
1698 VDD VDD:1699 0.176500
1699 VDD VDD:1700 0.189400
1700 VDD VDD:1701 0.147200
1701 VDD VDD:1702 0.198400
1702 VDD VDD:1703 0.148300
1703 VDD VDD:1704 0.098600
1704 VDD VDD:1705 0.272700
1705 VDD VDD:1706 0.182700
1706 VDD VDD:1707 0.234400
1707 VDD VDD:1708 0.084800
1708 VDD VDD:1709 0.278000
1709 VDD VDD:1710 0.307800
1710 VDD VDD:1711 0.049600
1711 VDD VDD:1712 0.223400
1712 VDD VDD:1713 0.099300
1713 VDD VDD:1714 0.248700
1714 VDD VDD:1715 0.214300
1715 VDD VDD:1716 0.180900
1716 VDD VDD:1717 0.255700
1717 VDD VDD:1718 0.261300
1718 VDD VDD:1719 0.093800
1719 VDD VDD:1720 0.315800
1720 VDD VDD:1721 0.245800
1721 VDD VDD:1722 0.119500
1722 VDD VDD:1723 0.107600
1723 VDD VDD:1724 0.292500
1724 VDD VDD:1725 0.119000
1725 VDD VDD:1726 0.034400
1726 VDD VDD:1727 0.258800
1727 VDD VDD:1728 0.127300
1728 VDD VDD:1729 0.200400
1729 VDD VDD:1730 0.152700
1730 VDD VDD:1731 0.232400
1731 VDD VDD:1732 0.246900
1732 VDD VDD:1733 0.036000
1733 VDD VDD:1734 0.063800
1734 VDD VDD:1735 0.049500
1735 VDD VDD:1736 0.137700
1736 VDD VDD:1737 0.190000
1737 VDD VDD:1738 0.231100
1738 VDD VDD:1739 0.116300
1739 VDD VDD:1740 0.222300
1740 VDD VDD:1741 0.220600
1741 VDD VDD:1742 0.194000
1742 VDD VDD:1743 0.104800
1743 VDD VDD:1744 0.199800
1744 VDD VDD:1745 0.213300
1745 VDD VDD:1746 0.203200
1746 VDD VDD:1747 0.147300
1747 VDD VDD:1748 0.190500
1748 VDD VDD:1749 0.213400
1749 VDD VDD:1750 0.193000
1750 VDD VDD:1751 0.187900
1751 VDD VDD:1752 0.190800
1752 VDD VDD:1753 0.151900
1753 VDD VDD:1754 0.083500
1754 VDD VDD:1755 0.136200
1755 VDD VDD:1756 0.287100
1756 VDD VDD:1757 0.248700
1757 VDD VDD:1758 0.210300
1758 VDD VDD:1759 0.209600
1759 VDD VDD:1760 0.223100
1760 VDD VDD:1761 0.087200
1761 VDD VDD:1762 0.081400
1762 VDD VDD:1763 0.112200
1763 VDD VDD:1764 0.264200
1764 VDD VDD:1765 0.078300
1765 VDD VDD:1766 0.170500
1766 VDD VDD:1767 0.188500
1767 VDD VDD:1768 0.172800
1768 VDD VDD:1769 0.237800
1769 VDD VDD:1770 0.175700
1770 VDD VDD:1771 0.050800
1771 VDD VDD:1772 0.234100
1772 VDD VDD:1773 0.212100
1773 VDD VDD:1774 0.194300
1774 VDD VDD:1775 0.127500
1775 VDD VDD:1776 0.160100
1776 VDD VDD:1777 0.175500
1777 VDD VDD:1778 0.143300
1778 VDD VDD:1779 0.186600
1779 VDD VDD:1780 0.127400
1780 VDD VDD:1781 0.218500
1781 VDD VDD:1782 0.116200
1782 VDD VDD:1783 0.023900
1783 VDD VDD:1784 0.051900
1784 VDD VDD:1785 0.093100
1785 VDD VDD:1786 0.162800
1786 VDD VDD:1787 0.132600
1787 VDD VDD:1788 0.135700
1788 VDD VDD:1789 0.168700
1789 VDD VDD:1790 0.174400
1790 VDD VDD:1791 0.115500
1791 VDD VDD:1792 0.213900
1792 VDD VDD:1793 0.118300
1793 VDD VDD:1794 0.181200
1794 VDD VDD:1795 0.229100
1795 VDD VDD:1796 0.217900
1796 VDD VDD:1797 0.259800
1797 VDD VDD:1798 0.225500
1798 VDD VDD:1799 0.193700
1799 VDD VDD:1800 0.138800
1800 VDD VDD:1801 0.250500
1801 VDD VDD:1802 0.202300
1802 VDD VDD:1803 0.112200
1803 VDD VDD:1804 0.103500
1804 VDD VDD:1805 0.180300
1805 VDD VDD:1806 0.188300
1806 VDD VDD:1807 0.183400
1807 VDD VDD:1808 0.188700
1808 VDD VDD:1809 0.215100
1809 VDD VDD:1810 0.235000
1810 VDD VDD:1811 0.242100
1811 VDD VDD:1812 0.216800
1812 VDD VDD:1813 0.218300
1813 VDD VDD:1814 0.097700
1814 VDD VDD:1815 0.255600
1815 VDD VDD:1816 0.156300
1816 VDD VDD:1817 0.167900
1817 VDD VDD:1818 0.137300
1818 VDD VDD:1819 0.079700
1819 VDD VDD:1820 0.108800
1820 VDD VDD:1821 0.042000
1821 VDD VDD:1822 0.311300
1822 VDD VDD:1823 0.213900
1823 VDD VDD:1824 0.228100
1824 VDD VDD:1825 0.038800
1825 VDD VDD:1826 0.166500
1826 VDD VDD:1827 0.132100
1827 VDD VDD:1828 0.229400
1828 VDD VDD:1829 0.237400
1829 VDD VDD:1830 0.235800
1830 VDD VDD:1831 0.256700
1831 VDD VDD:1832 0.191300
1832 VDD VDD:1833 0.173100
1833 VDD VDD:1834 0.152700
1834 VDD VDD:1835 0.214500
1835 VDD VDD:1836 0.125200
1836 VDD VDD:1837 0.205900
1837 VDD VDD:1838 0.282300
1838 VDD VDD:1839 0.288500
1839 VDD VDD:1840 0.140200
1840 VDD VDD:1841 0.214500
1841 VDD VDD:1842 0.230900
1842 VDD VDD:1843 0.158600
1843 VDD VDD:1844 0.225300
1844 VDD VDD:1845 0.097200
1845 VDD VDD:1846 0.184600
1846 VDD VDD:1847 0.140300
1847 VDD VDD:1848 0.222000
1848 VDD VDD:1849 0.156200
1849 VDD VDD:1850 0.217000
1850 VDD VDD:1851 0.179800
1851 VDD VDD:1852 0.229000
1852 VDD VDD:1853 0.256300
1853 VDD VDD:1854 0.278900
1854 VDD VDD:1855 0.218200
1855 VDD VDD:1856 0.214900
1856 VDD VDD:1857 0.041300
1857 VDD VDD:1858 0.192600
1858 VDD VDD:1859 0.253000
1859 VDD VDD:1860 0.240100
1860 VDD VDD:1861 0.110400
1861 VDD VDD:1862 0.170700
1862 VDD VDD:1863 0.238400
1863 VDD VDD:1864 0.164000
1864 VDD VDD:1865 0.129000
1865 VDD VDD:1866 0.245100
1866 VDD VDD:1867 0.125100
1867 VDD VDD:1868 0.308200
1868 VDD VDD:1869 0.285800
1869 VDD VDD:1870 0.108800
1870 VDD VDD:1871 0.192400
1871 VDD VDD:1872 0.204800
1872 VDD VDD:1873 0.252400
1873 VDD VDD:1874 0.189800
1874 VDD VDD:1875 0.221500
1875 VDD VDD:1876 0.081500
1876 VDD VDD:1877 0.042300
1877 VDD VDD:1878 0.252800
1878 VDD VDD:1879 0.183800
1879 VDD VDD:1880 0.164200
1880 VDD VDD:1881 0.239200
1881 VDD VDD:1882 0.140500
1882 VDD VDD:1883 0.207700
1883 VDD VDD:1884 0.106900
1884 VDD VDD:1885 0.138400
1885 VDD VDD:1886 0.231500
1886 VDD VDD:1887 0.253600
1887 VDD VDD:1888 0.169300
1888 VDD VDD:1889 0.298500
1889 VDD VDD:1890 0.126900
1890 VDD VDD:1891 0.118600
1891 VDD VDD:1892 0.076700
1892 VDD VDD:1893 0.127300
1893 VDD VDD:1894 0.162800
1894 VDD VDD:1895 0.306400
1895 VDD VDD:1896 0.044300
1896 VDD VDD:1897 0.116800
1897 VDD VDD:1898 0.108300
1898 VDD VDD:1899 0.231800
1899 VDD VDD:1900 0.061800
1900 VDD VDD:1901 0.033800
1901 VDD VDD:1902 0.097100
1902 VDD VDD:1903 0.204200
1903 VDD VDD:1904 0.241200
1904 VDD VDD:1905 0.223300
1905 VDD VDD:1906 0.158300
1906 VDD VDD:1907 0.070600
1907 VDD VDD:1908 0.218500
1908 VDD VDD:1909 0.106800
1909 VDD VDD:1910 0.271100
1910 VDD VDD:1911 0.108900
1911 VDD VDD:1912 0.251100
1912 VDD VDD:1913 0.137500
1913 VDD VDD:1914 0.190500
1914 VDD VDD:1915 0.107200
1915 VDD VDD:1916 0.213800
1916 VDD VDD:1917 0.155100
1917 VDD VDD:1918 0.223600
1918 VDD VDD:1919 0.192000
1919 VDD VDD:1920 0.090300
1920 VDD VDD:1921 0.141200
1921 VDD VDD:1922 0.232800
1922 VDD VDD:1923 0.092900
1923 VDD VDD:1924 0.223700
1924 VDD VDD:1925 0.248200
1925 VDD VDD:1926 0.097900
1926 VDD VDD:1927 0.158900
1927 VDD VDD:1928 0.162200
1928 VDD VDD:1929 0.082600
1929 VDD VDD:1930 0.136900
1930 VDD VDD:1931 0.055600
1931 VDD VDD:1932 0.145900
1932 VDD VDD:1933 0.224000
1933 VDD VDD:1934 0.185700
1934 VDD VDD:1935 0.190400
1935 VDD VDD:1936 0.174000
1936 VDD VDD:1937 0.244700
1937 VDD VDD:1938 0.118100
1938 VDD VDD:1939 0.208700
1939 VDD VDD:1940 0.206200
1940 VDD VDD:1941 0.184500
1941 VDD VDD:1942 0.041100
1942 VDD VDD:1943 0.218200
1943 VDD VDD:1944 0.159900
1944 VDD VDD:1945 0.109500
1945 VDD VDD:1946 0.142400
1946 VDD VDD:1947 0.111400
1947 VDD VDD:1948 0.237200
1948 VDD VDD:1949 0.130600
1949 VDD VDD:1950 0.125100
1950 VDD VDD:1951 0.162600
1951 VDD VDD:1952 0.246700
1952 VDD VDD:1953 0.085300
1953 VDD VDD:1954 0.023700
1954 VDD VDD:1955 0.244200
1955 VDD VDD:1956 0.240300
1956 VDD VDD:1957 0.181900
1957 VDD VDD:1958 0.182500
1958 VDD VDD:1959 0.215000
1959 VDD VDD:1960 0.231100
1960 VDD VDD:1961 0.177800
1961 VDD VDD:1962 0.284400
1962 VDD VDD:1963 0.254300
1963 VDD VDD:1964 0.277000
1964 VDD VDD:1965 0.220400
1965 VDD VDD:1966 0.193200
1966 VDD VDD:1967 0.112400
1967 VDD VDD:1968 0.241800
1968 VDD VDD:1969 0.250900
1969 VDD VDD:1970 0.194900
1970 VDD VDD:1971 0.109100
1971 VDD VDD:1972 0.235700
1972 VDD VDD:1973 0.209300
1973 VDD VDD:1974 0.245500
1974 VDD VDD:1975 0.250400
1975 VDD VDD:1976 0.113800
1976 VDD VDD:1977 0.232700
1977 VDD VDD:1978 0.123400
1978 VDD VDD:1979 0.125400
1979 VDD VDD:1980 0.159600
1980 VDD VDD:1981 0.082200
1981 VDD VDD:1982 0.019200
1982 VDD VDD:1983 0.248500
1983 VDD VDD:1984 0.244600
1984 VDD VDD:1985 0.178800
1985 VDD VDD:1986 0.097000
1986 VDD VDD:1987 0.245400
1987 VDD VDD:1988 0.102500
1988 VDD VDD:1989 0.225100
1989 VDD VDD:1990 0.272800
1990 VDD VDD:1991 0.281200
1991 VDD VDD:1992 0.249700
1992 VDD VDD:1993 0.173200
1993 VDD VDD:1994 0.228700
1994 VDD VDD:1995 0.235600
1995 VDD VDD:1996 0.143500
1996 VDD VDD:1997 0.177700
1997 VDD VDD:1998 0.096900
1998 VDD VDD:1999 0.220300
1999 VDD VDD:2000 0.243500
2000 VDD VDD:2001 0.246300
2001 VDD VDD:2002 0.079600
2002 VDD VDD:2003 0.116600
2003 VDD VDD:2004 0.294600
2004 VDD VDD:2005 0.228300
2005 VDD VDD:2006 0.256300
2006 VDD VDD:2007 0.135600
2007 VDD VDD:2008 0.113200
2008 VDD VDD:2009 0.067300
2009 VDD VDD:2010 0.089900
2010 VDD VDD:2011 0.219300
2011 VDD VDD:2012 0.200000
2012 VDD VDD:2013 0.062000
2013 VDD VDD:2014 0.112300
2014 VDD VDD:2015 0.162900
2015 VDD VDD:2016 0.266800
2016 VDD VDD:2017 0.162500
2017 VDD VDD:2018 0.247400
2018 VDD VDD:2019 0.103000
2019 VDD VDD:2020 0.211400
2020 VDD VDD:2021 0.153500
2021 VDD VDD:2022 0.190600
2022 VDD VDD:2023 0.105700
2023 VDD VDD:2024 0.166200
2024 VDD VDD:2025 0.131100
2025 VDD VDD:2026 0.302600
2026 VDD VDD:2027 0.102500
2027 VDD VDD:2028 0.034400
2028 VDD VDD:2029 0.132300
2029 VDD VDD:2030 0.190400
2030 VDD VDD:2031 0.187800
2031 VDD VDD:2032 0.057700
2032 VDD VDD:2033 0.220900
2033 VDD VDD:2034 0.132800
2034 VDD VDD:2035 0.146500
2035 VDD VDD:2036 0.216200
2036 VDD VDD:2037 0.085300
2037 VDD VDD:2038 0.118600
2038 VDD VDD:2039 0.240000
2039 VDD VDD:2040 0.174300
2040 VDD VDD:2041 0.211000
2041 VDD VDD:2042 0.162800
2042 VDD VDD:2043 0.112300
2043 VDD VDD:2044 0.233800
2044 VDD VDD:2045 0.041000
2045 VDD VDD:2046 0.190100
2046 VDD VDD:2047 0.154400
2047 VDD VDD:2048 0.191700
2048 VDD VDD:2049 0.048800
2049 VDD VDD:2050 0.222500
2050 VDD VDD:2051 0.146100
2051 VDD VDD:2052 0.157600
2052 VDD VDD:2053 0.118900
2053 VDD VDD:2054 0.210000
2054 VDD VDD:2055 0.235100
2055 VDD VDD:2056 0.237500
2056 VDD VDD:2057 0.115500
2057 VDD VDD:2058 0.152700
2058 VDD VDD:2059 0.164500
2059 VDD VDD:2060 0.189800
2060 VDD VDD:2061 0.100600
2061 VDD VDD:2062 0.292300
2062 VDD VDD:2063 0.051600
2063 VDD VDD:2064 0.300400
2064 VDD VDD:2065 0.104200
2065 VDD VDD:2066 0.114000
2066 VDD VDD:2067 0.133600
2067 VDD VDD:2068 0.164400
2068 VDD VDD:2069 0.081400
2069 VDD VDD:2070 0.224900
2070 VDD VDD:2071 0.065500
2071 VDD VDD:2072 0.189700
2072 VDD VDD:2073 0.248100
2073 VDD VDD:2074 0.258000
2074 VDD VDD:2075 0.190400
2075 VDD VDD:2076 0.245200
2076 VDD VDD:2077 0.134600
2077 VDD VDD:2078 0.197400
2078 VDD VDD:2079 0.062300
2079 VDD VDD:2080 0.216900
2080 VDD VDD:2081 0.107100
2081 VDD VDD:2082 0.121100
2082 VDD VDD:2083 0.222500
2083 VDD VDD:2084 0.115800
2084 VDD VDD:2085 0.165600
2085 VDD VDD:2086 0.231100
2086 VDD VDD:2087 0.264300
2087 VDD VDD:2088 0.192600
2088 VDD VDD:2089 0.162400
2089 VDD VDD:2090 0.089900
2090 VDD VDD:2091 0.216900
2091 VDD VDD:2092 0.035100
2092 VDD VDD:2093 0.154900
2093 VDD VDD:2094 0.149000
2094 VDD VDD:2095 0.218300
2095 VDD VDD:2096 0.146300
2096 VDD VDD:2097 0.176900
2097 VDD VDD:2098 0.243500
2098 VDD VDD:2099 0.247700
2099 VDD VDD:2100 0.279300
2100 VDD VDD:2101 0.151700
2101 VDD VDD:2102 0.270300
2102 VDD VDD:2103 0.195900
2103 VDD VDD:2104 0.174900
2104 VDD VDD:2105 0.059200
2105 VDD VDD:2106 0.247000
2106 VDD VDD:2107 0.087000
2107 VDD VDD:2108 0.231400
2108 VDD VDD:2109 0.170500
2109 VDD VDD:2110 0.144900
2110 VDD VDD:2111 0.115300
2111 VDD VDD:2112 0.238300
2112 VDD VDD:2113 0.099400
2113 VDD VDD:2114 0.105200
2114 VDD VDD:2115 0.041200
2115 VDD VDD:2116 0.100000
2116 VDD VDD:2117 0.134100
2117 VDD VDD:2118 0.109600
2118 VDD VDD:2119 0.212400
2119 VDD VDD:2120 0.240700
2120 VDD VDD:2121 0.230000
2121 VDD VDD:2122 0.211300
2122 VDD VDD:2123 0.097100
2123 VDD VDD:2124 0.125700
2124 VDD VDD:2125 0.252700
2125 VDD VDD:2126 0.174500
2126 VDD VDD:2127 0.080300
2127 VDD VDD:2128 0.237300
2128 VDD VDD:2129 0.016500
2129 VDD VDD:2130 0.251000
2130 VDD VDD:2131 0.157900
2131 VDD VDD:2132 0.192700
2132 VDD VDD:2133 0.247200
2133 VDD VDD:2134 0.129500
2134 VDD VDD:2135 0.227900
2135 VDD VDD:2136 0.162400
2136 VDD VDD:2137 0.108000
2137 VDD VDD:2138 0.259700
2138 VDD VDD:2139 0.241000
2139 VDD VDD:2140 0.234200
2140 VDD VDD:2141 0.195400
2141 VDD VDD:2142 0.105200
2142 VDD VDD:2143 0.062700
2143 VDD VDD:2144 0.151500
2144 VDD VDD:2145 0.118500
2145 VDD VDD:2146 0.224200
2146 VDD VDD:2147 0.230700
2147 VDD VDD:2148 0.298100
2148 VDD VDD:2149 0.249900
2149 VDD VDD:2150 0.036000
2150 VDD VDD:2151 0.118800
2151 VDD VDD:2152 0.146500
2152 VDD VDD:2153 0.234500
2153 VDD VDD:2154 0.174700
2154 VDD VDD:2155 0.162600
2155 VDD VDD:2156 0.102800
2156 VDD VDD:2157 0.098100
2157 VDD VDD:2158 0.193500
2158 VDD VDD:2159 0.189100
2159 VDD VDD:2160 0.151900
2160 VDD VDD:2161 0.208600
2161 VDD VDD:2162 0.213900
2162 VDD VDD:2163 0.217700
2163 VDD VDD:2164 0.041700
2164 VDD VDD:2165 0.136100
2165 VDD VDD:2166 0.115800
2166 VDD VDD:2167 0.166400
2167 VDD VDD:2168 0.261700
2168 VDD VDD:2169 0.168400
2169 VDD VDD:2170 0.119300
2170 VDD VDD:2171 0.089800
2171 VDD VDD:2172 0.249800
2172 VDD VDD:2173 0.190400
2173 VDD VDD:2174 0.191800
2174 VDD VDD:2175 0.236400
2175 VDD VDD:2176 0.214500
2176 VDD VDD:2177 0.135500
2177 VDD VDD:2178 0.083300
2178 VDD VDD:2179 0.267800
2179 VDD VDD:2180 0.244300
2180 VDD VDD:2181 0.277400
2181 VDD VDD:2182 0.167700
2182 VDD VDD:2183 0.240700
2183 VDD VDD:2184 0.116900
2184 VDD VDD:2185 0.175100
2185 VDD VDD:2186 0.146400
2186 VDD VDD:2187 0.097200
2187 VDD VDD:2188 0.172100
2188 VDD VDD:2189 0.126700
2189 VDD VDD:2190 0.097400
2190 VDD VDD:2191 0.156200
2191 VDD VDD:2192 0.216200
2192 VDD VDD:2193 0.253600
2193 VDD VDD:2194 0.013900
2194 VDD VDD:2195 0.078500
2195 VDD VDD:2196 0.237900
2196 VDD VDD:2197 0.126000
2197 VDD VDD:2198 0.106900
2198 VDD VDD:2199 0.227400
2199 VDD VDD:2200 0.152100
2200 VDD VDD:2201 0.149000
2201 VDD VDD:2202 0.088800
2202 VDD VDD:2203 0.060700
2203 VDD VDD:2204 0.101800
2204 VDD VDD:2205 0.197000
2205 VDD VDD:2206 0.254900
2206 VDD VDD:2207 0.213200
2207 VDD VDD:2208 0.227400
2208 VDD VDD:2209 0.233900
2209 VDD VDD:2210 0.133500
2210 VDD VDD:2211 0.194900
2211 VDD VDD:2212 0.290100
2212 VDD VDD:2213 0.114400
2213 VDD VDD:2214 0.243000
2214 VDD VDD:2215 0.239300
2215 VDD VDD:2216 0.250700
2216 VDD VDD:2217 0.054300
2217 VDD VDD:2218 0.063700
2218 VDD VDD:2219 0.096400
2219 VDD VDD:2220 0.110000
2220 VDD VDD:2221 0.147100
2221 VDD VDD:2222 0.197900
2222 VDD VDD:2223 0.104900
2223 VDD VDD:2224 0.251500
2224 VDD VDD:2225 0.061900
2225 VDD VDD:2226 0.150200
2226 VDD VDD:2227 0.095600
2227 VDD VDD:2228 0.170300
2228 VDD VDD:2229 0.101800
2229 VDD VDD:2230 0.117200
2230 VDD VDD:2231 0.260900
2231 VDD VDD:2232 0.296500
2232 VDD VDD:2233 0.146700
2233 VDD VDD:2234 0.137900
2234 VDD VDD:2235 0.174900
2235 VDD VDD:2236 0.090100
2236 VDD VDD:2237 0.153300
2237 VDD VDD:2238 0.062500
2238 VDD VDD:2239 0.120400
2239 VDD VDD:2240 0.232500
2240 VDD VDD:2241 0.161400
2241 VDD VDD:2242 0.225400
2242 VDD VDD:2243 0.056300
2243 VDD VDD:2244 0.266000
2244 VDD VDD:2245 0.236300
2245 VDD VDD:2246 0.242300
2246 VDD VDD:2247 0.118100
2247 VDD VDD:2248 0.252600
2248 VDD VDD:2249 0.165700
2249 VDD VDD:2250 0.242900
2250 VDD VDD:2251 0.238700
2251 VDD VDD:2252 0.276100
2252 VDD VDD:2253 0.113700
2253 VDD VDD:2254 0.173800
2254 VDD VDD:2255 0.155000
2255 VDD VDD:2256 0.147500
2256 VDD VDD:2257 0.288400
2257 VDD VDD:2258 0.194100
2258 VDD VDD:2259 0.162400
2259 VDD VDD:2260 0.170000
2260 VDD VDD:2261 0.103600
2261 VDD VDD:2262 0.124700
2262 VDD VDD:2263 0.214800
2263 VDD VDD:2264 0.229100
2264 VDD VDD:2265 0.255500
2265 VDD VDD:2266 0.012000
2266 VDD VDD:2267 0.077300
2267 VDD VDD:2268 0.132800
2268 VDD VDD:2269 0.235900
2269 VDD VDD:2270 0.235800
2270 VDD VDD:2271 0.126200
2271 VDD VDD:2272 0.256500
2272 VDD VDD:2273 0.232800
2273 VDD VDD:2274 0.097300
2274 VDD VDD:2275 0.237400
2275 VDD VDD:2276 0.103800
2276 VDD VDD:2277 0.240600
2277 VDD VDD:2278 0.215000
2278 VDD VDD:2279 0.190500
2279 VDD VDD:2280 0.042100
2280 VDD VDD:2281 0.241400
2281 VDD VDD:2282 0.136500
2282 VDD VDD:2283 0.089900
2283 VDD VDD:2284 0.193100
2284 VDD VDD:2285 0.251700
2285 VDD VDD:2286 0.214600
2286 VDD VDD:2287 0.259900
2287 VDD VDD:2288 0.117100
2288 VDD VDD:2289 0.167700
2289 VDD VDD:2290 0.084700
2290 VDD VDD:2291 0.119600
2291 VDD VDD:2292 0.218300
2292 VDD VDD:2293 0.197300
2293 VDD VDD:2294 0.225400
2294 VDD VDD:2295 0.036700
2295 VDD VDD:2296 0.188600
2296 VDD VDD:2297 0.193200
2297 VDD VDD:2298 0.207700
2298 VDD VDD:2299 0.063100
2299 VDD VDD:2300 0.151300
2300 VDD VDD:2301 0.212800
2301 VDD VDD:2302 0.227600
2302 VDD VDD:2303 0.239400
2303 VDD VDD:2304 0.064000
2304 VDD VDD:2305 0.189900
2305 VDD VDD:2306 0.285500
2306 VDD VDD:2307 0.232200
2307 VDD VDD:2308 0.236400
2308 VDD VDD:2309 0.239800
2309 VDD VDD:2310 0.262800
2310 VDD VDD:2311 0.258800
2311 VDD VDD:2312 0.255100
2312 VDD VDD:2313 0.200700
2313 VDD VDD:2314 0.120300
2314 VDD VDD:2315 0.219300
2315 VDD VDD:2316 0.131700
2316 VDD VDD:2317 0.075200
2317 VDD VDD:2318 0.112400
2318 VDD VDD:2319 0.120100
2319 VDD VDD:2320 0.121100
2320 VDD VDD:2321 0.246400
2321 VDD VDD:2322 0.162300
2322 VDD VDD:2323 0.239100
2323 VDD VDD:2324 0.009000
2324 VDD VDD:2325 0.038300
2325 VDD VDD:2326 0.209800
2326 VDD VDD:2327 0.273700
2327 VDD VDD:2328 0.152900
2328 VDD VDD:2329 0.149400
2329 VDD VDD:2330 0.190700
2330 VDD VDD:2331 0.238900
2331 VDD VDD:2332 0.243000
2332 VDD VDD:2333 0.212300
2333 VDD VDD:2334 0.235100
2334 VDD VDD:2335 0.090100
2335 VDD VDD:2336 0.059800
2336 VDD VDD:2337 0.162400
2337 VDD VDD:2338 0.255900
2338 VDD VDD:2339 0.097700
2339 VDD VDD:2340 0.166400
2340 VDD VDD:2341 0.106800
2341 VDD VDD:2342 0.170100
2342 VDD VDD:2343 0.229000
2343 VDD VDD:2344 0.100200
2344 VDD VDD:2345 0.064100
2345 VDD VDD:2346 0.150400
2346 VDD VDD:2347 0.138300
2347 VDD VDD:2348 0.092400
2348 VDD VDD:2349 0.206000
2349 VDD VDD:2350 0.141200
2350 VDD VDD:2351 0.259400
2351 VDD VDD:2352 0.119400
2352 VDD VDD:2353 0.060400
2353 VDD VDD:2354 0.147200
2354 VDD VDD:2355 0.216900
2355 VDD VDD:2356 0.175400
2356 VDD VDD:2357 0.114300
2357 VDD VDD:2358 0.156500
2358 VDD VDD:2359 0.123800
2359 VDD VDD:2360 0.101500
2360 VDD VDD:2361 0.159200
2361 VDD VDD:2362 0.263100
2362 VDD VDD:2363 0.043100
2363 VDD VDD:2364 0.195400
2364 VDD VDD:2365 0.232200
2365 VDD VDD:2366 0.238700
2366 VDD VDD:2367 0.126800
2367 VDD VDD:2368 0.093300
2368 VDD VDD:2369 0.092400
2369 VDD VDD:2370 0.171500
2370 VDD VDD:2371 0.146700
2371 VDD VDD:2372 0.293600
2372 VDD VDD:2373 0.173900
2373 VDD VDD:2374 0.222100
2374 VDD VDD:2375 0.143700
2375 VDD VDD:2376 0.113600
2376 VDD VDD:2377 0.217100
2377 VDD VDD:2378 0.087200
2378 VDD VDD:2379 0.101500
2379 VDD VDD:2380 0.256700
2380 VDD VDD:2381 0.187800
2381 VDD VDD:2382 0.254400
2382 VDD VDD:2383 0.199300
2383 VDD VDD:2384 0.195800
2384 VDD VDD:2385 0.187400
2385 VDD VDD:2386 0.261000
2386 VDD VDD:2387 0.233100
2387 VDD VDD:2388 0.248400
2388 VDD VDD:2389 0.292000
2389 VDD VDD:2390 0.264300
2390 VDD VDD:2391 0.157900
2391 VDD VDD:2392 0.125700
2392 VDD VDD:2393 0.112700
2393 VDD VDD:2394 0.205100
2394 VDD VDD:2395 0.241500
2395 VDD VDD:2396 0.256100
2396 VDD VDD:2397 0.090600
2397 VDD VDD:2398 0.098000
2398 VDD VDD:2399 0.175900
2399 VDD VDD:2400 0.131000
2400 VDD VDD:2401 0.238400
2401 VDD VDD:2402 0.127200
2402 VDD VDD:2403 0.237100
2403 VDD VDD:2404 0.257000
2404 VDD VDD:2405 0.272400
2405 VDD VDD:2406 0.202600
2406 VDD VDD:2407 0.164400
2407 VDD VDD:2408 0.218600
2408 VDD VDD:2409 0.244400
2409 VDD VDD:2410 0.043700
2410 VDD VDD:2411 0.218000
2411 VDD VDD:2412 0.150500
2412 VDD VDD:2413 0.171400
2413 VDD VDD:2414 0.220000
2414 VDD VDD:2415 0.228800
2415 VDD VDD:2416 0.151700
2416 VDD VDD:2417 0.158300
2417 VDD VDD:2418 0.240100
2418 VDD VDD:2419 0.160300
2419 VDD VDD:2420 0.061900
2420 VDD VDD:2421 0.121400
2421 VDD VDD:2422 0.210900
2422 VDD VDD:2423 0.093800
2423 VDD VDD:2424 0.257800
2424 VDD VDD:2425 0.236900
2425 VDD VDD:2426 0.144700
2426 VDD VDD:2427 0.261100
2427 VDD VDD:2428 0.200200
2428 VDD VDD:2429 0.196100
2429 VDD VDD:2430 0.241800
2430 VDD VDD:2431 0.187400
2431 VDD VDD:2432 0.261000
2432 VDD VDD:2433 0.233100
2433 VDD VDD:2434 0.248400
2434 VDD VDD:2435 0.292000
2435 VDD VDD:2436 0.264300
2436 VDD VDD:2437 0.157900
2437 VDD VDD:2438 0.125700
2438 VDD VDD:2439 0.112700
2439 VDD VDD:2440 0.205100
2440 VDD VDD:2441 0.241500
2441 VDD VDD:2442 0.256100
2442 VDD VDD:2443 0.090600
2443 VDD VDD:2444 0.098000
2444 VDD VDD:2445 0.175900
2445 VDD VDD:2446 0.131000
2446 VDD VDD:2447 0.238400
2447 VDD VDD:2448 0.127200
2448 VDD VDD:2449 0.237100
2449 VDD VDD:2450 0.257000
2450 VDD VDD:2451 0.272400
2451 VDD VDD:2452 0.202600
2452 VDD VDD:2453 0.164400
2453 VDD VDD:2454 0.218600
2454 VDD VDD:2455 0.244400
2455 VDD VDD:2456 0.043700
2456 VDD VDD:2457 0.218000
2457 VDD VDD:2458 0.150500
2458 VDD VDD:2459 0.171400
2459 VDD VDD:2460 0.220000
2460 VDD VDD:2461 0.228800
2461 VDD VDD:2462 0.151700
2462 VDD VDD:2463 0.158300
2463 VDD VDD:2464 0.240100
2464 VDD VDD:2465 0.160300
2465 VDD VDD:2466 0.061900
2466 VDD VDD:2467 0.121400
2467 VDD VDD:2468 0.210900
2468 VDD VDD:2469 0.093800
2469 VDD VDD:2470 0.257800
2470 VDD VDD:2471 0.236900
2471 VDD VDD:2472 0.144700
2472 VDD VDD:2473 0.261100
2473 VDD VDD:2474 0.200200
2474 VDD VDD:2475 0.196100
2475 VDD VDD:2476 0.241800
2476 VDD VDD:2477 0.091600
2477 VDD VDD:2478 0.148400
2478 VDD VDD:2479 0.232700
2479 VDD VDD:2480 0.042900
2480 VDD VDD:2481 0.094400
2481 VDD VDD:2482 0.128800
2482 VDD VDD:2483 0.260900
2483 VDD VDD:2484 0.068800
2484 VDD VDD:2485 0.098100
2485 VDD VDD:2486 0.086600
2486 VDD VDD:2487 0.243400
2487 VDD VDD:2488 0.262400
2488 VDD VDD:2489 0.122600
2489 VDD VDD:2490 0.085300
2490 VDD VDD:2491 0.130900
2491 VDD VDD:2492 0.247100
2492 VDD VDD:2493 0.214700
2493 VDD VDD:2494 0.121100
2494 VDD VDD:2495 0.139400
2495 VDD VDD:2496 0.046500
2496 VDD VDD:2497 0.207400
2497 VDD VDD:2498 0.185700
2498 VDD VDD:2499 0.097500
2499 VDD VDD:2500 0.197700
2500 VDD VDD:2501 0.177100
2501 VDD VDD:2502 0.221300
2502 VDD VDD:2503 0.149200
2503 VDD VDD:2504 0.154200
2504 VDD VDD:2505 0.166400
2505 VDD VDD:2506 0.190700
2506 VDD VDD:2507 0.136300
2507 VDD VDD:2508 0.262800
2508 VDD VDD:2509 0.201200
2509 VDD VDD:2510 0.202100
2510 VDD VDD:2511 0.125000
2511 VDD VDD:2512 0.143000
2512 VDD VDD:2513 0.181500
2513 VDD VDD:2514 0.163200
2514 VDD VDD:2515 0.108000
2515 VDD VDD:2516 0.148900
2516 VDD VDD:2517 0.250100
2517 VDD VDD:2518 0.093200
2518 VDD VDD:2519 0.096300
2519 VDD VDD:2520 0.113400
2520 VDD VDD:2521 0.247800
2521 VDD VDD:2522 0.099500
2522 VDD VDD:2523 0.162300
2523 VDD VDD:2524 0.113500
2524 VDD VDD:2525 0.269200
2525 VDD VDD:2526 0.222200
2526 VDD VDD:2527 0.268200
2527 VDD VDD:2528 0.006300
2528 VDD VDD:2529 0.287900
2529 VDD VDD:2530 0.154200
2530 VDD VDD:2531 0.279800
2531 VDD VDD:2532 0.207700
2532 VDD VDD:2533 0.154700
2533 VDD VDD:2534 0.227400
2534 VDD VDD:2535 0.232500
2535 VDD VDD:2536 0.203200
2536 VDD VDD:2537 0.231300
2537 VDD VDD:2538 0.256300
2538 VDD VDD:2539 0.247300
2539 VDD VDD:2540 0.149000
2540 VDD VDD:2541 0.265400
2541 VDD VDD:2542 0.253700
2542 VDD VDD:2543 0.239200
2543 VDD VDD:2544 0.067500
2544 VDD VDD:2545 0.130000
2545 VDD VDD:2546 0.224500
2546 VDD VDD:2547 0.174900
2547 VDD VDD:2548 0.066800
2548 VDD VDD:2549 0.183400
2549 VDD VDD:2550 0.222300
2550 VDD VDD:2551 0.109600
2551 VDD VDD:2552 0.220700
2552 VDD VDD:2553 0.244100
2553 VDD VDD:2554 0.071500
2554 VDD VDD:2555 0.203700
2555 VDD VDD:2556 0.125300
2556 VDD VDD:2557 0.158700
2557 VDD VDD:2558 0.265600
2558 VDD VDD:2559 0.056000
2559 VDD VDD:2560 0.198800
2560 VDD VDD:2561 0.204400
2561 VDD VDD:2562 0.044600
2562 VDD VDD:2563 0.148700
2563 VDD VDD:2564 0.230400
2564 VDD VDD:2565 0.092100
2565 VDD VDD:2566 0.191000
2566 VDD VDD:2567 0.201400
2567 VDD VDD:2568 0.176900
2568 VDD VDD:2569 0.185200
2569 VDD VDD:2570 0.249900
2570 VDD VDD:2571 0.070300
2571 VDD VDD:2572 0.234500
2572 VDD VDD:2573 0.054800
2573 VDD VDD:2574 0.127000
2574 VDD VDD:2575 0.144600
2575 VDD VDD:2576 0.247600
2576 VDD VDD:2577 0.222300
2577 VDD VDD:2578 0.249700
2578 VDD VDD:2579 0.184300
2579 VDD VDD:2580 0.265100
2580 VDD VDD:2581 0.007300
2581 VDD VDD:2582 0.200900
2582 VDD VDD:2583 0.180900
2583 VDD VDD:2584 0.203300
2584 VDD VDD:2585 0.133700
2585 VDD VDD:2586 0.123400
2586 VDD VDD:2587 0.224300
2587 VDD VDD:2588 0.223200
2588 VDD VDD:2589 0.094700
2589 VDD VDD:2590 0.123800
2590 VDD VDD:2591 0.270000
2591 VDD VDD:2592 0.116000
2592 VDD VDD:2593 0.212000
2593 VDD VDD:2594 0.250100
2594 VDD VDD:2595 0.091800
2595 VDD VDD:2596 0.129500
2596 VDD VDD:2597 0.221700
2597 VDD VDD:2598 0.100200
2598 VDD VDD:2599 0.070200
2599 VDD VDD:2600 0.067900
2600 VDD VDD:2601 0.129200
2601 VDD VDD:2602 0.108900
2602 VDD VDD:2603 0.246900
2603 VDD VDD:2604 0.155900
2604 VDD VDD:2605 0.268200
2605 VDD VDD:2606 0.070800
2606 VDD VDD:2607 0.210400
2607 VDD VDD:2608 0.110600
2608 VDD VDD:2609 0.162500
2609 VDD VDD:2610 0.267500
2610 VDD VDD:2611 0.155900
2611 VDD VDD:2612 0.277600
2612 VDD VDD:2613 0.151900
2613 VDD VDD:2614 0.082900
2614 VDD VDD:2615 0.147500
2615 VDD VDD:2616 0.228600
2616 VDD VDD:2617 0.224700
2617 VDD VDD:2618 0.253800
2618 VDD VDD:2619 0.256400
2619 VDD VDD:2620 0.127100
2620 VDD VDD:2621 0.100100
2621 VDD VDD:2622 0.267700
2622 VDD VDD:2623 0.047900
2623 VDD VDD:2624 0.205500
2624 VDD VDD:2625 0.177600
2625 VDD VDD:2626 0.096500
2626 VDD VDD:2627 0.164700
2627 VDD VDD:2628 0.218500
2628 VDD VDD:2629 0.241700
2629 VDD VDD:2630 0.149500
2630 VDD VDD:2631 0.152600
2631 VDD VDD:2632 0.285700
2632 VDD VDD:2633 0.095300
2633 VDD VDD:2634 0.244900
2634 VDD VDD:2635 0.165700
2635 VDD VDD:2636 0.105900
2636 VDD VDD:2637 0.265500
2637 VDD VDD:2638 0.136700
2638 VDD VDD:2639 0.151000
2639 VDD VDD:2640 0.263200
2640 VDD VDD:2641 0.133600
2641 VDD VDD:2642 0.084300
2642 VDD VDD:2643 0.232100
2643 VDD VDD:2644 0.234000
2644 VDD VDD:2645 0.258100
2645 VDD VDD:2646 0.260400
2646 VDD VDD:2647 0.283200
2647 VDD VDD:2648 0.280100
2648 VDD VDD:2649 0.184200
2649 VDD VDD:2650 0.186300
2650 VDD VDD:2651 0.228800
2651 VDD VDD:2652 0.231900
2652 VDD VDD:2653 0.115800
2653 VDD VDD:2654 0.118500
2654 VDD VDD:2655 0.160800
2655 VDD VDD:2656 0.191000
2656 VDD VDD:2657 0.193900
2657 VDD VDD:2658 0.158400
2658 VDD VDD:2659 0.213000
2659 VDD VDD:2660 0.215900
2660 VDD VDD:2661 0.170000
2661 VDD VDD:2662 0.210400
2662 VDD VDD:2663 0.204900
2663 VDD VDD:2664 0.174700
2664 VDD VDD:2665 0.179500
2665 VDD VDD:2666 0.202000
2666 VDD VDD:2667 0.207500
2667 VDD VDD:2668 0.177000
2668 VDD VDD:2669 0.167500
2669 VDD VDD:2670 0.172200
2670 VDD VDD:2671 0.196700
2671 VDD VDD:2672 0.163100
2672 VDD VDD:2673 0.133600
2673 VDD VDD:2674 0.130300
2674 VDD VDD:2675 0.161900
2675 VDD VDD:2676 0.158700
2676 VDD VDD:2677 0.071900
2677 VDD VDD:2678 0.031600
2678 VDD VDD:2679 0.035100
2679 VDD VDD:2680 0.155900
2680 VDD VDD:2681 0.152500
2681 VDD VDD:2682 0.069500
2682 VDD VDD:2683 0.066100
2683 VDD VDD:2684 0.170900
2684 VDD VDD:2685 0.174300
2685 VDD VDD:2686 0.234300
2686 VDD VDD:2687 0.230900
2687 VDD VDD:2688 0.142500
2688 VDD VDD:2689 0.120000
2689 VDD VDD:2690 0.148100
2690 VDD VDD:2691 0.219600
2691 VDD VDD:2692 0.213900
2692 VDD VDD:2693 0.125600
2693 VDD VDD:2694 0.114300
2694 VDD VDD:2695 0.136900
2695 VDD VDD:2696 0.225300
2696 VDD VDD:2697 0.131200
2697 VDD VDD:2698 0.145300
2698 VDD VDD:2699 0.134000
2699 VDD VDD:2700 0.111500
2700 VDD VDD:2701 0.228100
2701 VDD VDD:2702 0.128400
2702 VDD VDD:2703 0.222400
2703 VDD VDD:2704 0.139700
2704 VDD VDD:2705 0.216800
2705 VDD VDD:2706 0.122800
2706 VDD VDD:2707 0.205000
2707 VDD VDD:2708 0.202200
2708 VDD VDD:2709 0.117100
2709 VDD VDD:2710 0.136500
2710 VDD VDD:2711 0.132800
2711 VDD VDD:2712 0.243700
2712 VDD VDD:2713 0.163900
2713 VDD VDD:2714 0.243400
2714 VDD VDD:2715 0.167600
2715 VDD VDD:2716 0.068900
2716 VDD VDD:2717 0.065300
2717 VDD VDD:2718 0.043400
2718 VDD VDD:2719 0.046600
2719 VDD VDD:2720 0.231600
2720 VDD VDD:2721 0.228100
2721 VDD VDD:2722 0.017800
2722 VDD VDD:2723 0.015700
2723 VDD VDD:2724 0.057100
2724 VDD VDD:2725 0.213700
2725 VDD VDD:2726 0.211000
2726 VDD VDD:2727 0.145100
2727 VDD VDD:2728 0.222000
2728 VDD VDD:2729 0.227500
2729 VDD VDD:2730 0.216500
2730 VDD VDD:2731 0.145800
2731 VDD VDD:2732 0.215100
2732 VDD VDD:2733 0.155700
2733 VDD VDD:2734 0.160800
2734 VDD VDD:2735 0.258700
2735 VDD VDD:2736 0.263500
2736 VDD VDD:2737 0.268400
2737 VDD VDD:2738 0.165900
2738 VDD VDD:2739 0.189500
2739 VDD VDD:2740 0.275200
2740 VDD VDD:2741 0.220700
2741 VDD VDD:2742 0.271000
2742 VDD VDD:2743 0.266800
2743 VDD VDD:2744 0.213700
2744 VDD VDD:2745 0.224800
2745 VDD VDD:2746 0.219200
2746 VDD VDD:2747 0.143000
2747 VDD VDD:2748 0.153200
2748 VDD VDD:2749 0.212300
2749 VDD VDD:2750 0.217900
2750 VDD VDD:2751 0.158300
2751 VDD VDD:2752 0.261100
2752 VDD VDD:2753 0.266000
2753 VDD VDD:2754 0.270900
2754 VDD VDD:2755 0.277300
2755 VDD VDD:2756 0.163400
2756 VDD VDD:2757 0.223500
2757 VDD VDD:2758 0.226300
2758 VDD VDD:2759 0.268900
2759 VDD VDD:2760 0.191800
2760 VDD VDD:2761 0.273100
2761 VDD VDD:2762 0.168000
2762 VDD VDD:2763 0.156100
2763 VDD VDD:2764 0.169300
2764 VDD VDD:2765 0.164200
2765 VDD VDD:2766 0.214500
2766 VDD VDD:2767 0.211500
2767 VDD VDD:2768 0.087300
2768 VDD VDD:2769 0.058700
2769 VDD VDD:2770 0.195700
2770 VDD VDD:2771 0.198800
2771 VDD VDD:2772 0.207400
2772 VDD VDD:2773 0.210700
2773 VDD VDD:2774 0.066500
2774 VDD VDD:2775 0.069700
2775 VDD VDD:2776 0.195700
2776 VDD VDD:2777 0.072500
2777 VDD VDD:2778 0.092000
2778 VDD VDD:2779 0.094600
2779 VDD VDD:2780 0.054300
2780 VDD VDD:2781 0.210000
2781 VDD VDD:2782 0.258500
2782 VDD VDD:2783 0.212800
2783 VDD VDD:2784 0.199300
2784 VDD VDD:2785 0.225500
2785 VDD VDD:2786 0.186300
2786 VDD VDD:2787 0.189200
2787 VDD VDD:2788 0.072300
2788 VDD VDD:2789 0.165300
2789 VDD VDD:2790 0.183200
2790 VDD VDD:2791 0.197500
2791 VDD VDD:2792 0.192200
2792 VDD VDD:2793 0.256200
2793 VDD VDD:2794 0.216100
2794 VDD VDD:2795 0.236700
2795 VDD VDD:2796 0.228200
2796 VDD VDD:2797 0.230900
2797 VDD VDD:2798 0.234300
2798 VDD VDD:2799 0.222800
2799 VDD VDD:2800 0.190700
2800 VDD VDD:2801 0.187700
2801 VDD VDD:2802 0.187900
2802 VDD VDD:2803 0.075100
2803 VDD VDD:2804 0.184700
2804 VDD VDD:2805 0.218600
2805 VDD VDD:2806 0.169700
2806 VDD VDD:2807 0.172000
2807 VDD VDD:2808 0.215500
2808 VDD VDD:2809 0.246400
2809 VDD VDD:2810 0.072900
2810 VDD VDD:2811 0.127200
2811 VDD VDD:2812 0.158300
2812 VDD VDD:2813 0.218100
2813 VDD VDD:2814 0.161100
2814 VDD VDD:2815 0.075200
2815 VDD VDD:2816 0.130000
2816 VDD VDD:2817 0.245100
2817 VDD VDD:2818 0.136600
2818 VDD VDD:2819 0.080600
2819 VDD VDD:2820 0.077800
2820 VDD VDD:2821 0.172600
2821 VDD VDD:2822 0.221700
2822 VDD VDD:2823 0.224900
2823 VDD VDD:2824 0.013800
2824 VDD VDD:2825 0.227500
2825 VDD VDD:2826 0.230100
2826 VDD VDD:2827 0.014500
2827 VDD VDD:2828 0.165200
2828 VDD VDD:2829 0.167400
2829 VDD VDD:2830 0.077500
2830 VDD VDD:2831 0.220800
2831 VDD VDD:2832 0.079900
2832 VDD VDD:2833 0.223900
2833 VDD VDD:2834 0.273700
2834 VDD VDD:2835 0.239000
2835 VDD VDD:2836 0.230800
2836 VDD VDD:2837 0.228100
2837 VDD VDD:2838 0.263700
2838 VDD VDD:2839 0.266200
2839 VDD VDD:2840 0.251800
2840 VDD VDD:2841 0.248600
2841 VDD VDD:2842 0.137500
2842 VDD VDD:2843 0.095800
2843 VDD VDD:2844 0.150400
2844 VDD VDD:2845 0.160400
2845 VDD VDD:2846 0.090600
2846 VDD VDD:2847 0.260500
2847 VDD VDD:2848 0.262900
2848 VDD VDD:2849 0.110200
2849 VDD VDD:2850 0.146700
2850 VDD VDD:2851 0.085000
2851 VDD VDD:2852 0.106900
2852 VDD VDD:2853 0.098400
2853 VDD VDD:2854 0.096600
2854 VDD VDD:2855 0.242600
2855 VDD VDD:2856 0.095200
2856 VDD VDD:2857 0.146100
2857 VDD VDD:2858 0.110500
2858 VDD VDD:2859 0.240300
2859 VDD VDD:2860 0.081300
2860 VDD VDD:2861 0.105200
2861 VDD VDD:2862 0.094700
2862 VDD VDD:2863 0.156600
2863 VDD VDD:2864 0.155900
2864 VDD VDD:2865 0.119800
2865 VDD VDD:2866 0.197100
2866 VDD VDD:2867 0.090900
2867 VDD VDD:2868 0.234900
2868 VDD VDD:2869 0.100800
2869 VDD VDD:2870 0.073000
2870 VDD VDD:2871 0.128000
2871 VDD VDD:2872 0.101200
2872 VDD VDD:2873 0.128600
2873 VDD VDD:2874 0.089400
2874 VDD VDD:2875 0.118600
2875 VDD VDD:2876 0.194800
2876 VDD VDD:2877 0.073200
2877 VDD VDD:2878 0.232100
2878 VDD VDD:2879 0.212400
2879 VDD VDD:2880 0.215900
2880 VDD VDD:2881 0.139000
2881 VDD VDD:2882 0.082400
2882 VDD VDD:2883 0.104100
2883 VDD VDD:2884 0.132500
2884 VDD VDD:2885 0.158600
2885 VDD VDD:2886 0.084000
2886 VDD VDD:2887 0.202900
2887 VDD VDD:2888 0.191500
2888 VDD VDD:2889 0.157900
2889 VDD VDD:2890 0.078900
2890 VDD VDD:2891 0.080300
2891 VDD VDD:2892 0.105300
2892 VDD VDD:2893 0.133600
2893 VDD VDD:2894 0.199900
2894 VDD VDD:2895 0.141400
2895 VDD VDD:2896 0.188200
2896 VDD VDD:2897 0.072100
2897 VDD VDD:2898 0.118100
2898 VDD VDD:2899 0.173300
2899 VDD VDD:2900 0.140200
2900 VDD VDD:2901 0.121600
2901 VDD VDD:2902 0.150100
2902 VDD VDD:2903 0.168400
2903 VDD VDD:2904 0.147400
2904 VDD VDD:2905 0.150100
2905 VDD VDD:2906 0.134700
2906 VDD VDD:2907 0.131900
2907 VDD VDD:2908 0.153100
2908 VDD VDD:2909 0.140400
2909 VDD VDD:2910 0.136600
2910 VDD VDD:2911 0.121000
2911 VDD VDD:2912 0.137700
2912 VDD VDD:2913 0.144500
2913 VDD VDD:2914 0.147600
2914 VDD VDD:2915 0.162900
2915 VDD VDD:2916 0.097700
2916 VDD VDD:2917 0.165300
2917 VDD VDD:2918 0.075700
2918 VDD VDD:2919 0.070600
2919 VDD VDD:2920 0.130700
2920 VDD VDD:2921 0.015700
2921 VDD VDD:2922 0.098600
2922 VDD VDD:2923 0.158900
2923 VDD VDD:2924 0.136900
2924 VDD VDD:2925 0.130700
2925 VDD VDD:2926 0.094300
2926 VDD VDD:2927 0.168100
2927 VDD VDD:2928 0.158100
2928 VDD VDD:2929 0.014100
2929 VDD VDD:2930 0.087800
2930 VDD VDD:2931 0.152500
2931 VDD VDD:2932 0.096300
2932 VDD VDD:2933 0.092100
2933 VDD VDD:2934 0.207500
2934 VDD VDD:2935 0.228900
2935 VDD VDD:2936 0.170700
2936 VDD VDD:2937 0.127900
2937 VDD VDD:2938 0.130800
2938 VDD VDD:2939 0.170600
2939 VDD VDD:2940 0.136100
2940 VDD VDD:2941 0.154500
2941 VDD VDD:2942 0.180800
2942 VDD VDD:2943 0.175800
2943 VDD VDD:2944 0.098500
2944 VDD VDD:2945 0.116700
2945 VDD VDD:2946 0.124700
2946 VDD VDD:2947 0.152900
2947 VDD VDD:2948 0.143300
2948 VDD VDD:2949 0.170900
2949 VDD VDD:2950 0.100800
2950 VDD VDD:2951 0.148700
2951 VDD VDD:2952 0.136200
2952 VDD VDD:2953 0.133300
2953 VDD VDD:2954 0.151600
2954 VDD VDD:2955 0.154700
2955 VDD VDD:2956 0.133700
2956 VDD VDD:2957 0.069400
2957 VDD VDD:2958 0.147300
2958 VDD VDD:2959 0.139300
2959 VDD VDD:2960 0.068100
2960 VDD VDD:2961 0.073200
2961 VDD VDD:2962 0.127800
2962 VDD VDD:2963 0.014600
2963 VDD VDD:2964 0.155200
2964 VDD VDD:2965 0.127600
2965 VDD VDD:2966 0.096400
2966 VDD VDD:2967 0.165200
2967 VDD VDD:2968 0.155100
2968 VDD VDD:2969 0.119500
2969 VDD VDD:2970 0.133800
2970 VDD VDD:2971 0.014300
2971 VDD VDD:2972 0.094200
2972 VDD VDD:2973 0.090400
2973 VDD VDD:2974 0.055700
2974 VDD VDD:2975 0.153500
2975 VDD VDD:2976 0.138800
2976 VDD VDD:2977 0.231700
2977 VDD VDD:2978 0.183400
2978 VDD VDD:2979 0.210600
2979 VDD VDD:2980 0.174000
2980 VDD VDD:2981 0.174000
2981 VDD VDD:2982 0.239200
2982 VDD VDD:2983 0.109000
2983 VDD VDD:2984 0.072100
2984 VDD VDD:2985 0.183400
2985 VDD VDD:2986 0.113900
2986 VDD VDD:2987 0.118000
2987 VDD VDD:2988 0.183000
2988 VDD VDD:2989 0.250300
2989 VDD VDD:2990 0.125100
2990 VDD VDD:2991 0.129800
2991 VDD VDD:2992 0.139000
2992 VDD VDD:2993 0.086800
2993 VDD VDD:2994 0.145900
2994 VDD VDD:2995 0.095800
2995 VDD VDD:2996 0.300200
2996 VDD VDD:2997 0.054700
2997 VDD VDD:2998 0.119600
2998 VDD VDD:2999 0.190600
2999 VDD VDD:3000 0.109400
3000 VDD VDD:3001 0.025800
3001 VDD VDD:3002 0.163000
3002 VDD VDD:3003 0.075500
3003 VDD VDD:3004 0.090500
3004 VDD VDD:3005 0.242300
3005 VDD VDD:3006 0.273000
3006 VDD VDD:3007 0.033800
3007 VDD VDD:3008 0.108300
3008 VDD VDD:3009 0.216800
3009 VDD VDD:3010 0.091200
3010 VDD VDD:3011 0.160900
3011 VDD VDD:3012 0.061800
3012 VDD VDD:3013 0.155800
3013 VDD VDD:3014 0.246700
3014 VDD VDD:3015 0.118800
3015 VDD VDD:3016 0.225100
3016 VDD VDD:3017 0.206100
3017 VDD VDD:3018 0.074700
3018 VDD VDD:3019 0.121200
3019 VDD VDD:3020 0.034200
3020 VDD VDD:3021 0.073500
3021 VDD VDD:3022 0.276400
3022 VDD VDD:3023 0.238900
3023 VDD VDD:3024 0.062200
3024 VDD VDD:3025 0.303300
3025 VDD VDD:3026 0.106400
3026 VDD VDD:3027 0.180400
3027 VDD VDD:3028 0.185800
3028 VDD VDD:3029 0.142700
3029 VDD VDD:3030 0.089600
3030 VDD VDD:3031 0.092100
3031 VDD VDD:3032 0.190600
3032 VDD VDD:3033 0.118000
3033 VDD VDD:3034 0.122400
3034 VDD VDD:3035 0.209500
3035 VDD VDD:3036 0.029500
3036 VDD VDD:3037 0.242600
3037 VDD VDD:3038 0.157300
3038 VDD VDD:3039 0.254000
3039 VDD VDD:3040 0.121900
3040 VDD VDD:3041 0.091200
3041 VDD VDD:3042 0.163200
3042 VDD VDD:3043 0.146000
3043 VDD VDD:3044 0.116600
3044 VDD VDD:3045 0.112300
3045 VDD VDD:3046 0.128400
3046 VDD VDD:3047 0.213700
3047 VDD VDD:3048 0.111700
3048 VDD VDD:3049 0.250300
3049 VDD VDD:3050 0.228300
3050 VDD VDD:3051 0.088000
3051 VDD VDD:3052 0.053200
3052 VDD VDD:3053 0.164400
3053 VDD VDD:3054 0.274400
3054 VDD VDD:3055 0.276600
3055 VDD VDD:3056 0.071900
3056 VDD VDD:3057 0.176700
3057 VDD VDD:3058 0.252200
3058 VDD VDD:3059 0.085300
3059 VDD VDD:3060 0.189500
3060 VDD VDD:3061 0.155800
3061 VDD VDD:3062 0.100100
3062 VDD VDD:3063 0.127800
3063 VDD VDD:3064 0.226300
3064 VDD VDD:3065 0.202000
3065 VDD VDD:3066 0.226400
3066 VDD VDD:3067 0.158000
3067 VDD VDD:3068 0.260000
3068 VDD VDD:3069 0.114900
3069 VDD VDD:3070 0.175100
3070 VDD VDD:3071 0.200600
3071 VDD VDD:3072 0.083800
3072 VDD VDD:3073 0.276200
3073 VDD VDD:3074 0.071600
3074 VDD VDD:3075 0.157000
3075 VDD VDD:3076 0.249900
3076 VDD VDD:3077 0.187400
3077 VDD VDD:3078 0.099700
3078 VDD VDD:3079 0.155600
3079 VDD VDD:3080 0.127600
3080 VDD VDD:3081 0.241700
3081 VDD VDD:3082 0.224600
3082 VDD VDD:3083 0.257900
3083 VDD VDD:3084 0.223900
3084 VDD VDD:3085 0.113500
3085 VDD VDD:3086 0.282100
3086 VDD VDD:3087 0.286100
3087 VDD VDD:3088 0.184300
3088 VDD VDD:3089 0.262000
3089 VDD VDD:3090 0.269200
3090 VDD VDD:3091 0.209000
3091 VDD VDD:3092 0.234600
3092 VDD VDD:3093 0.163800
3093 VDD VDD:3094 0.205700
3094 VDD VDD:3095 0.180800
3095 VDD VDD:3096 0.265200
3096 VDD VDD:3097 0.231000
3097 VDD VDD:3098 0.160900
3098 VDD VDD:3099 0.258000
3099 VDD VDD:3100 0.260700
3100 VDD VDD:3101 0.258500
3101 VDD VDD:3102 0.213600
3102 VDD VDD:3103 0.162000
3103 VDD VDD:3104 0.213700
3104 VDD VDD:3105 0.192600
3105 VDD VDD:3106 0.278400
3106 VDD VDD:3107 0.230600
3107 VDD VDD:3108 0.175000
3108 VDD VDD:3109 0.149100
3109 VDD VDD:3110 0.278300
3110 VDD VDD:3111 0.186200
3111 VDD VDD:3112 0.210600
3112 VDD VDD:3113 0.294700
3113 VDD VDD:3114 0.233700
3114 VDD VDD:3115 0.214500
3115 VDD VDD:3116 0.251600
3116 VDD VDD:3117 0.232100
3117 VDD VDD:3118 0.131100
3118 VDD VDD:3119 0.297100
3119 VDD VDD:3120 0.133800
3120 VDD VDD:3121 0.194600
3121 VDD VDD:3122 0.210600
3122 VDD VDD:3123 0.280800
3123 VDD VDD:3124 0.177800
3124 VDD VDD:3125 0.236800
3125 VDD VDD:3126 0.254400
3126 VDD VDD:3127 0.280900
3127 VDD VDD:3128 0.151500
3128 VDD VDD:3129 0.189100
3129 VDD VDD:3130 0.216200
3130 VDD VDD:3131 0.212800
3131 VDD VDD:3132 0.233700
3132 VDD VDD:3133 0.216600
3133 VDD VDD:3134 0.164500
3134 VDD VDD:3135 0.234100
3135 VDD VDD:3136 0.019700
3136 VDD VDD:3137 0.237100
3137 VDD VDD:3138 0.219200
3138 VDD VDD:3139 0.139400
3139 VDD VDD:3140 0.175400
3140 VDD VDD:3141 0.182800
3141 VDD VDD:3142 0.272200
3142 VDD VDD:3143 0.274300
3143 VDD VDD:3144 0.240000
3144 VDD VDD:3145 0.021800
3145 VDD VDD:3146 0.216600
3146 VDD VDD:3147 0.142200
3147 VDD VDD:3148 0.181500
3148 VDD VDD:3149 0.178200
3149 VDD VDD:3150 0.181000
3150 VDD VDD:3151 0.281600
3151 VDD VDD:3152 0.284600
3152 VDD VDD:3153 0.214500
3153 VDD VDD:3154 0.230900
3154 VDD VDD:3155 0.158600
3155 VDD VDD:3156 0.225300
3156 VDD VDD:3157 0.097200
3157 VDD VDD:3158 0.184600
3158 VDD VDD:3159 0.140300
3159 VDD VDD:3160 0.222000
3160 VDD VDD:3161 0.156200
3161 VDD VDD:3162 0.217000
3162 VDD VDD:3163 0.179800
3163 VDD VDD:3164 0.229000
3164 VDD VDD:3165 0.256300
3165 VDD VDD:3166 0.278900
3166 VDD VDD:3167 0.218200
3167 VDD VDD:3168 0.214900
3168 VDD VDD:3169 0.041300
3169 VDD VDD:3170 0.192600
3170 VDD VDD:3171 0.253000
3171 VDD VDD:3172 0.240100
3172 VDD VDD:3173 0.110400
3173 VDD VDD:3174 0.170700
3174 VDD VDD:3175 0.238400
3175 VDD VDD:3176 0.164000
3176 VDD VDD:3177 0.129000
3177 VDD VDD:3178 0.245100
3178 VDD VDD:3179 0.125100
3179 VDD VDD:3180 0.308200
3180 VDD VDD:3181 0.285800
3181 VDD VDD:3182 0.108800
3182 VDD VDD:3183 0.192400
3183 VDD VDD:3184 0.204800
3184 VDD VDD:3185 0.252400
3185 VDD VDD:3186 0.189800
3186 VDD VDD:3187 0.221500
3187 VDD VDD:3188 0.081500
3188 VDD VDD:3189 0.042300
3189 VDD VDD:3190 0.252800
3190 VDD VDD:3191 0.183800
3191 VDD VDD:3192 0.164200
3192 VDD VDD:3193 0.239200
3193 VDD VDD:3194 0.140500
3194 VDD VDD:3195 0.207700
3195 VDD VDD:3196 0.106900
3196 VDD VDD:3197 0.138400
3197 VDD VDD:3198 0.231500
3198 VDD VDD:3199 0.229100
3199 VDD VDD:3200 0.217900
3200 VDD VDD:3201 0.259800
3201 VDD VDD:3202 0.225500
3202 VDD VDD:3203 0.193700
3203 VDD VDD:3204 0.138800
3204 VDD VDD:3205 0.250500
3205 VDD VDD:3206 0.202300
3206 VDD VDD:3207 0.112200
3207 VDD VDD:3208 0.103500
3208 VDD VDD:3209 0.180300
3209 VDD VDD:3210 0.188300
3210 VDD VDD:3211 0.183400
3211 VDD VDD:3212 0.188700
3212 VDD VDD:3213 0.215100
3213 VDD VDD:3214 0.235000
3214 VDD VDD:3215 0.242100
3215 VDD VDD:3216 0.216800
3216 VDD VDD:3217 0.218300
3217 VDD VDD:3218 0.097700
3218 VDD VDD:3219 0.255600
3219 VDD VDD:3220 0.156300
3220 VDD VDD:3221 0.167900
3221 VDD VDD:3222 0.137300
3222 VDD VDD:3223 0.079700
3223 VDD VDD:3224 0.108800
3224 VDD VDD:3225 0.042000
3225 VDD VDD:3226 0.311300
3226 VDD VDD:3227 0.213900
3227 VDD VDD:3228 0.228100
3228 VDD VDD:3229 0.038800
3229 VDD VDD:3230 0.166500
3230 VDD VDD:3231 0.132100
3231 VDD VDD:3232 0.229400
3232 VDD VDD:3233 0.237400
3233 VDD VDD:3234 0.235800
3234 VDD VDD:3235 0.256700
3235 VDD VDD:3236 0.191300
3236 VDD VDD:3237 0.173100
3237 VDD VDD:3238 0.152700
3238 VDD VDD:3239 0.214500
3239 VDD VDD:3240 0.125200
3240 VDD VDD:3241 0.205900
3241 VDD VDD:3242 0.282300
3242 VDD VDD:3243 0.288500
3243 VDD VDD:3244 0.140200
3244 VDD VDD:3245 0.292000
3245 VDD VDD:3246 0.294200
3246 VDD VDD:3247 0.162400
3247 VDD VDD:3248 0.108000
3248 VDD VDD:3249 0.259700
3249 VDD VDD:3250 0.241000
3250 VDD VDD:3251 0.234200
3251 VDD VDD:3252 0.195400
3252 VDD VDD:3253 0.105200
3253 VDD VDD:3254 0.062700
3254 VDD VDD:3255 0.151500
3255 VDD VDD:3256 0.118500
3256 VDD VDD:3257 0.224200
3257 VDD VDD:3258 0.230700
3258 VDD VDD:3259 0.298100
3259 VDD VDD:3260 0.249900
3260 VDD VDD:3261 0.036000
3261 VDD VDD:3262 0.118800
3262 VDD VDD:3263 0.146500
3263 VDD VDD:3264 0.234500
3264 VDD VDD:3265 0.174700
3265 VDD VDD:3266 0.162600
3266 VDD VDD:3267 0.102800
3267 VDD VDD:3268 0.098100
3268 VDD VDD:3269 0.193500
3269 VDD VDD:3270 0.189100
3270 VDD VDD:3271 0.151900
3271 VDD VDD:3272 0.208600
3272 VDD VDD:3273 0.213900
3273 VDD VDD:3274 0.217700
3274 VDD VDD:3275 0.041700
3275 VDD VDD:3276 0.136100
3276 VDD VDD:3277 0.115800
3277 VDD VDD:3278 0.166400
3278 VDD VDD:3279 0.261700
3279 VDD VDD:3280 0.168400
3280 VDD VDD:3281 0.119300
3281 VDD VDD:3282 0.089800
3282 VDD VDD:3283 0.249800
3283 VDD VDD:3284 0.190400
3284 VDD VDD:3285 0.191800
3285 VDD VDD:3286 0.236400
3286 VDD VDD:3287 0.214500
3287 VDD VDD:3288 0.135500
3288 VDD VDD:3289 0.083300
3289 VDD VDD:3290 0.267800
3290 VDD VDD:3291 0.244300
3291 VDD VDD:3292 0.277400
3292 VDD VDD:3293 0.167700
3293 VDD VDD:3294 0.240700
3294 VDD VDD:3295 0.116900
3295 VDD VDD:3296 0.175100
3296 VDD VDD:3297 0.146400
3297 VDD VDD:3298 0.097200
3298 VDD VDD:3299 0.172100
3299 VDD VDD:3300 0.126700
3300 VDD VDD:3301 0.097400
3301 VDD VDD:3302 0.156200
3302 VDD VDD:3303 0.216200
3303 VDD VDD:3304 0.253600
3304 VDD VDD:3305 0.013900
3305 VDD VDD:3306 0.078500
3306 VDD VDD:3307 0.237900
3307 VDD VDD:3308 0.126000
3308 VDD VDD:3309 0.106900
3309 VDD VDD:3310 0.227400
3310 VDD VDD:3311 0.152100
3311 VDD VDD:3312 0.149000
3312 VDD VDD:3313 0.088800
3313 VDD VDD:3314 0.060700
3314 VDD VDD:3315 0.101800
3315 VDD VDD:3316 0.197000
3316 VDD VDD:3317 0.254900
3317 VDD VDD:3318 0.213200
3318 VDD VDD:3319 0.227400
3319 VDD VDD:3320 0.233900
3320 VDD VDD:3321 0.133500
3321 VDD VDD:3322 0.194900
3322 VDD VDD:3323 0.290100
3323 VDD VDD:3324 0.114400
3324 VDD VDD:3325 0.243000
3325 VDD VDD:3326 0.239300
3326 VDD VDD:3327 0.250700
3327 VDD VDD:3328 0.054300
3328 VDD VDD:3329 0.063700
3329 VDD VDD:3330 0.118900
3330 VDD VDD:3331 0.210000
3331 VDD VDD:3332 0.235100
3332 VDD VDD:3333 0.237500
3333 VDD VDD:3334 0.115500
3334 VDD VDD:3335 0.152700
3335 VDD VDD:3336 0.164500
3336 VDD VDD:3337 0.189800
3337 VDD VDD:3338 0.100600
3338 VDD VDD:3339 0.292300
3339 VDD VDD:3340 0.051600
3340 VDD VDD:3341 0.300400
3341 VDD VDD:3342 0.104200
3342 VDD VDD:3343 0.114000
3343 VDD VDD:3344 0.133600
3344 VDD VDD:3345 0.164400
3345 VDD VDD:3346 0.081400
3346 VDD VDD:3347 0.224900
3347 VDD VDD:3348 0.065500
3348 VDD VDD:3349 0.189700
3349 VDD VDD:3350 0.248100
3350 VDD VDD:3351 0.258000
3351 VDD VDD:3352 0.190400
3352 VDD VDD:3353 0.245200
3353 VDD VDD:3354 0.134600
3354 VDD VDD:3355 0.197400
3355 VDD VDD:3356 0.062300
3356 VDD VDD:3357 0.216900
3357 VDD VDD:3358 0.107100
3358 VDD VDD:3359 0.121100
3359 VDD VDD:3360 0.222500
3360 VDD VDD:3361 0.115800
3361 VDD VDD:3362 0.165600
3362 VDD VDD:3363 0.231100
3363 VDD VDD:3364 0.264300
3364 VDD VDD:3365 0.192600
3365 VDD VDD:3366 0.162400
3366 VDD VDD:3367 0.089900
3367 VDD VDD:3368 0.216900
3368 VDD VDD:3369 0.035100
3369 VDD VDD:3370 0.154900
3370 VDD VDD:3371 0.149000
3371 VDD VDD:3372 0.218300
3372 VDD VDD:3373 0.146300
3373 VDD VDD:3374 0.176900
3374 VDD VDD:3375 0.243500
3375 VDD VDD:3376 0.247700
3376 VDD VDD:3377 0.279300
3377 VDD VDD:3378 0.151700
3378 VDD VDD:3379 0.270300
3379 VDD VDD:3380 0.195900
3380 VDD VDD:3381 0.174900
3381 VDD VDD:3382 0.059200
3382 VDD VDD:3383 0.247000
3383 VDD VDD:3384 0.087000
3384 VDD VDD:3385 0.231400
3385 VDD VDD:3386 0.170500
3386 VDD VDD:3387 0.144900
3387 VDD VDD:3388 0.115300
3388 VDD VDD:3389 0.238300
3389 VDD VDD:3390 0.099400
3390 VDD VDD:3391 0.105200
3391 VDD VDD:3392 0.041200
3392 VDD VDD:3393 0.100000
3393 VDD VDD:3394 0.134100
3394 VDD VDD:3395 0.109600
3395 VDD VDD:3396 0.212400
3396 VDD VDD:3397 0.240700
3397 VDD VDD:3398 0.230000
3398 VDD VDD:3399 0.211300
3399 VDD VDD:3400 0.097100
3400 VDD VDD:3401 0.125700
3401 VDD VDD:3402 0.252700
3402 VDD VDD:3403 0.174500
3403 VDD VDD:3404 0.080300
3404 VDD VDD:3405 0.237300
3405 VDD VDD:3406 0.016500
3406 VDD VDD:3407 0.251000
3407 VDD VDD:3408 0.157900
3408 VDD VDD:3409 0.192700
3409 VDD VDD:3410 0.247200
3410 VDD VDD:3411 0.129500
3411 VDD VDD:3412 0.227900
3412 VDD VDD:3413 0.304500
3413 VDD VDD:3414 0.306800
3414 VDD VDD:3415 0.198800
3415 VDD VDD:3416 0.204400
3416 VDD VDD:3417 0.044600
3417 VDD VDD:3418 0.148700
3418 VDD VDD:3419 0.230400
3419 VDD VDD:3420 0.092100
3420 VDD VDD:3421 0.191000
3421 VDD VDD:3422 0.201400
3422 VDD VDD:3423 0.176900
3423 VDD VDD:3424 0.185200
3424 VDD VDD:3425 0.249900
3425 VDD VDD:3426 0.070300
3426 VDD VDD:3427 0.234500
3427 VDD VDD:3428 0.054800
3428 VDD VDD:3429 0.127000
3429 VDD VDD:3430 0.144600
3430 VDD VDD:3431 0.247600
3431 VDD VDD:3432 0.222300
3432 VDD VDD:3433 0.249700
3433 VDD VDD:3434 0.184300
3434 VDD VDD:3435 0.265100
3435 VDD VDD:3436 0.007300
3436 VDD VDD:3437 0.200900
3437 VDD VDD:3438 0.180900
3438 VDD VDD:3439 0.203300
3439 VDD VDD:3440 0.133700
3440 VDD VDD:3441 0.123400
3441 VDD VDD:3442 0.224300
3442 VDD VDD:3443 0.223200
3443 VDD VDD:3444 0.094700
3444 VDD VDD:3445 0.123800
3445 VDD VDD:3446 0.270000
3446 VDD VDD:3447 0.116000
3447 VDD VDD:3448 0.212000
3448 VDD VDD:3449 0.250100
3449 VDD VDD:3450 0.091800
3450 VDD VDD:3451 0.129500
3451 VDD VDD:3452 0.221700
3452 VDD VDD:3453 0.100200
3453 VDD VDD:3454 0.070200
3454 VDD VDD:3455 0.067900
3455 VDD VDD:3456 0.129200
3456 VDD VDD:3457 0.108900
3457 VDD VDD:3458 0.246900
3458 VDD VDD:3459 0.155900
3459 VDD VDD:3460 0.268200
3460 VDD VDD:3461 0.070800
3461 VDD VDD:3462 0.210400
3462 VDD VDD:3463 0.110600
3463 VDD VDD:3464 0.162500
3464 VDD VDD:3465 0.267500
3465 VDD VDD:3466 0.155900
3466 VDD VDD:3467 0.277600
3467 VDD VDD:3468 0.151900
3468 VDD VDD:3469 0.082900
3469 VDD VDD:3470 0.147500
3470 VDD VDD:3471 0.228600
3471 VDD VDD:3472 0.224700
3472 VDD VDD:3473 0.253800
3473 VDD VDD:3474 0.256400
3474 VDD VDD:3475 0.127100
3475 VDD VDD:3476 0.100100
3476 VDD VDD:3477 0.267700
3477 VDD VDD:3478 0.047900
3478 VDD VDD:3479 0.205500
3479 VDD VDD:3480 0.177600
3480 VDD VDD:3481 0.096500
3481 VDD VDD:3482 0.164700
3482 VDD VDD:3483 0.218500
3483 VDD VDD:3484 0.241700
3484 VDD VDD:3485 0.149500
3485 VDD VDD:3486 0.152600
3486 VDD VDD:3487 0.285700
3487 VDD VDD:3488 0.095300
3488 VDD VDD:3489 0.244900
3489 VDD VDD:3490 0.165700
3490 VDD VDD:3491 0.105900
3491 VDD VDD:3492 0.265500
3492 VDD VDD:3493 0.136700
3493 VDD VDD:3494 0.151000
3494 VDD VDD:3495 0.263200
3495 VDD VDD:3496 0.133600
3496 VDD VDD:3497 0.084300
3497 VDD VDD:3498 0.091600
3498 VDD VDD:3499 0.148400
3499 VDD VDD:3500 0.232700
3500 VDD VDD:3501 0.042900
3501 VDD VDD:3502 0.094400
3502 VDD VDD:3503 0.128800
3503 VDD VDD:3504 0.260900
3504 VDD VDD:3505 0.068800
3505 VDD VDD:3506 0.098100
3506 VDD VDD:3507 0.086600
3507 VDD VDD:3508 0.243400
3508 VDD VDD:3509 0.262400
3509 VDD VDD:3510 0.122600
3510 VDD VDD:3511 0.085300
3511 VDD VDD:3512 0.130900
3512 VDD VDD:3513 0.247100
3513 VDD VDD:3514 0.214700
3514 VDD VDD:3515 0.121100
3515 VDD VDD:3516 0.139400
3516 VDD VDD:3517 0.046500
3517 VDD VDD:3518 0.207400
3518 VDD VDD:3519 0.185700
3519 VDD VDD:3520 0.097500
3520 VDD VDD:3521 0.197700
3521 VDD VDD:3522 0.177100
3522 VDD VDD:3523 0.221300
3523 VDD VDD:3524 0.149200
3524 VDD VDD:3525 0.154200
3525 VDD VDD:3526 0.166400
3526 VDD VDD:3527 0.190700
3527 VDD VDD:3528 0.136300
3528 VDD VDD:3529 0.262800
3529 VDD VDD:3530 0.201200
3530 VDD VDD:3531 0.202100
3531 VDD VDD:3532 0.125000
3532 VDD VDD:3533 0.143000
3533 VDD VDD:3534 0.181500
3534 VDD VDD:3535 0.163200
3535 VDD VDD:3536 0.108000
3536 VDD VDD:3537 0.148900
3537 VDD VDD:3538 0.250100
3538 VDD VDD:3539 0.093200
3539 VDD VDD:3540 0.096300
3540 VDD VDD:3541 0.113400
3541 VDD VDD:3542 0.247800
3542 VDD VDD:3543 0.099500
3543 VDD VDD:3544 0.162300
3544 VDD VDD:3545 0.113500
3545 VDD VDD:3546 0.269200
3546 VDD VDD:3547 0.222200
3547 VDD VDD:3548 0.268200
3548 VDD VDD:3549 0.006300
3549 VDD VDD:3550 0.287900
3550 VDD VDD:3551 0.154200
3551 VDD VDD:3552 0.279800
3552 VDD VDD:3553 0.207700
3553 VDD VDD:3554 0.154700
3554 VDD VDD:3555 0.227400
3555 VDD VDD:3556 0.232500
3556 VDD VDD:3557 0.203200
3557 VDD VDD:3558 0.231300
3558 VDD VDD:3559 0.256300
3559 VDD VDD:3560 0.247300
3560 VDD VDD:3561 0.149000
3561 VDD VDD:3562 0.265400
3562 VDD VDD:3563 0.253700
3563 VDD VDD:3564 0.239200
3564 VDD VDD:3565 0.067500
3565 VDD VDD:3566 0.130000
3566 VDD VDD:3567 0.224500
3567 VDD VDD:3568 0.174900
3568 VDD VDD:3569 0.066800
3569 VDD VDD:3570 0.183400
3570 VDD VDD:3571 0.222300
3571 VDD VDD:3572 0.109600
3572 VDD VDD:3573 0.220700
3573 VDD VDD:3574 0.244100
3574 VDD VDD:3575 0.071500
3575 VDD VDD:3576 0.203700
3576 VDD VDD:3577 0.125300
3577 VDD VDD:3578 0.158700
3578 VDD VDD:3579 0.265600
3579 VDD VDD:3580 0.056000
*END

*D_NET VSS 585.842297
*CONN
*P VSS B
*CAP
1 VSS 565.992270
2 VSS _001_ 0.014875
3 VSS _002_ 0.002512
4 VSS _005_ 0.039005
5 VSS _007_ 0.018787
6 VSS _008_ 0.014875
7 VSS _009_ 0.242188
8 VSS _010_ 0.014875
9 VSS _011_ 0.014875
10 VSS _012_ 0.014875
11 VSS _014_ 0.033375
12 VSS _015_ 0.042250
13 VSS _021_ 0.014875
14 VSS _022_ 0.016166
15 VSS _023_ 0.014875
16 VSS _024_ 0.014875
17 VSS _026_ 0.014875
18 VSS _028_ 0.014875
19 VSS _029_ 0.017682
20 VSS _031_ 0.014875
21 VSS _034_ 0.014875
22 VSS _036_ 0.014875
23 VSS _039_ 0.014875
24 VSS _041_ 0.088422
25 VSS _042_ 0.014875
26 VSS _044_ 0.021115
27 VSS _045_ 0.016166
28 VSS _046_ 0.014875
29 VSS _047_ 0.027375
30 VSS _048_ 0.015686
31 VSS _049_ 0.014875
32 VSS _051_ 0.014875
33 VSS _053_ 0.014875
34 VSS _054_ 0.807926
35 VSS _055_ 0.207586
36 VSS _056_ 0.251549
37 VSS _057_ 0.100644
38 VSS _058_ 0.036526
39 VSS _061_ 0.100818
40 VSS _063_ 0.027375
41 VSS _064_ 0.018658
42 VSS _065_ 0.014875
43 VSS _066_ 0.017959
44 VSS _067_ 0.003140
45 VSS _068_ 0.014875
46 VSS _069_ 0.029750
47 VSS _070_ 0.074043
48 VSS _071_ 0.074043
49 VSS _072_ 0.045616
50 VSS _073_ 0.014875
51 VSS _074_ 0.017212
52 VSS _075_ 0.033551
53 VSS _076_ 0.061813
54 VSS _077_ 0.127805
55 VSS _078_ 0.240324
56 VSS _083_ 0.074043
57 VSS _085_ 0.183291
58 VSS _086_ 0.074043
59 VSS _087_ 0.014875
60 VSS _088_ 0.354454
61 VSS _090_ 0.014875
62 VSS _091_ 0.040162
63 VSS _092_ 0.074043
64 VSS _093_ 0.014875
65 VSS _094_ 0.074043
66 VSS _096_ 0.014875
67 VSS _097_ 0.036526
68 VSS _098_ 0.014875
69 VSS _099_ 0.067537
70 VSS _101_ 0.035872
71 VSS _102_ 0.014875
72 VSS _103_ 0.106933
73 VSS _104_ 0.041165
74 VSS _105_ 0.028593
75 VSS _106_ 0.003140
76 VSS _107_ 0.005993
77 VSS _108_ 0.030907
78 VSS _109_ 0.014875
79 VSS _110_ 0.103793
80 VSS _111_ 0.236449
81 VSS _113_ 0.014875
82 VSS _114_ 0.267085
83 VSS _116_ 0.014875
84 VSS _117_ 0.088918
85 VSS _118_ 0.014875
86 VSS _119_ 0.014875
87 VSS _120_ 0.124948
88 VSS _121_ 0.029750
89 VSS _122_ 0.017407
90 VSS _123_ 0.088918
91 VSS _127_ 0.014875
92 VSS _129_ 0.014875
93 VSS _130_ 0.027270
94 VSS _133_ 0.014875
95 VSS _135_ 0.074043
96 VSS _136_ 0.021651
97 VSS _137_ 0.014875
98 VSS _138_ 0.014875
99 VSS _139_ 0.017391
100 VSS _140_ 0.073652
101 VSS _141_ 0.111065
102 VSS _142_ 0.074043
103 VSS _143_ 0.040162
104 VSS _144_ 0.014875
105 VSS _145_ 0.014875
106 VSS bus_reset 0.092295
107 VSS clk 0.095404
108 VSS clknet_0_clk 0.436331
109 VSS clknet_3_0__leaf_clk 0.317990
110 VSS clknet_3_1__leaf_clk 0.364760
111 VSS clknet_3_2__leaf_clk 0.302727
112 VSS clknet_3_3__leaf_clk 0.426246
113 VSS clknet_3_4__leaf_clk 0.374600
114 VSS clknet_3_5__leaf_clk 0.248786
115 VSS clknet_3_6__leaf_clk 0.214069
116 VSS clknet_3_7__leaf_clk 0.282432
117 VSS cur_byte[0] 0.014875
118 VSS cur_byte[1] 0.017586
119 VSS cur_byte[2] 0.021651
120 VSS cur_byte[3] 0.014875
121 VSS cur_byte[4] 0.035736
122 VSS cur_byte[5] 0.014875
123 VSS cur_byte[6] 0.029750
124 VSS cur_byte[7] 0.020572
125 VSS dec_data_bit 0.077483
126 VSS dec_data_valid 0.157880
127 VSS dec_line_bit 0.030983
128 VSS dec_line_valid 0.140050
129 VSS destuff_in_valid 0.127531
130 VSS destuff_out_bit 0.093100
131 VSS destuff_out_valid 0.288075
132 VSS enc_line_bit 0.029750
133 VSS enc_line_valid 0.118668
134 VSS eop_pulse 0.123172
135 VSS int_rst_n 0.626880
136 VSS line_state[0] 0.168541
137 VSS line_state[1] 0.096269
138 VSS next_byte[0] 0.064292
139 VSS next_byte[1] 0.014875
140 VSS next_byte[2] 0.088257
141 VSS next_byte[3] 0.033144
142 VSS next_byte[4] 0.014875
143 VSS next_byte[5] 0.030907
144 VSS next_byte[6] 0.029750
145 VSS next_byte[7] 0.015686
146 VSS next_valid 0.029750
147 VSS rst_n 0.024539
148 VSS rx_bitcnt[0] 0.029750
149 VSS rx_bitcnt[1] 0.034796
150 VSS rx_bitcnt[2] 0.029750
151 VSS rx_receiving 0.277520
152 VSS rx_shift[2] 0.014875
153 VSS rx_shift[3] 0.044790
154 VSS rx_shift[4] 0.088918
155 VSS rx_shift[5] 0.045947
156 VSS rx_shift[6] 0.074343
157 VSS rx_shift[7] 0.075060
158 VSS rxdm 0.109821
159 VSS rxdp 0.059499
160 VSS stuff_in_ready 0.176845
161 VSS stuff_out_bit 0.066276
162 VSS stuff_out_valid 0.020572
163 VSS stuffer_in_bit 0.128831
164 VSS stuffer_in_valid 0.114536
165 VSS sync_next 0.030850
166 VSS tx_bitidx[0] 0.106262
167 VSS tx_bitidx[1] 0.096272
168 VSS tx_bitidx[2] 0.073196
169 VSS tx_state[0] 0.196513
170 VSS tx_state[1] 0.032276
171 VSS tx_state[2] 0.109491
172 VSS tx_state[3] 0.352880
173 VSS tx_state[4] 0.094616
174 VSS tx_state[5] 0.032379
175 VSS tx_state[6] 0.073548
176 VSS tx_state[8] 0.014875
177 VSS txdm 0.154029
178 VSS txdp 0.152603
179 VSS u_decoder\/_00_ 0.014875
180 VSS u_decoder\/_01_ 0.014875
181 VSS u_decoder\/_02_ 0.014875
182 VSS u_decoder\/_03_ 0.074043
183 VSS u_decoder\/_04_ 0.039005
184 VSS u_decoder\/_05_ 0.014875
185 VSS u_decoder\/_06_ 0.027270
186 VSS u_decoder\/_07_ 0.132707
187 VSS u_decoder\/_08_ 0.000642
188 VSS u_decoder\/prev_line 0.014875
189 VSS u_destuffer\/_01_ 0.016725
190 VSS u_destuffer\/_02_ 0.014875
191 VSS u_destuffer\/_03_ 0.002579
192 VSS u_destuffer\/_04_ 0.029750
193 VSS u_destuffer\/_05_ 0.088918
194 VSS u_destuffer\/_06_ 0.088918
195 VSS u_destuffer\/_07_ 0.014875
196 VSS u_destuffer\/_08_ 0.053245
197 VSS u_destuffer\/_09_ 0.175889
198 VSS u_destuffer\/_10_ 0.047269
199 VSS u_destuffer\/_11_ 0.121067
200 VSS u_destuffer\/_13_ 0.014875
201 VSS u_destuffer\/_14_ 0.033731
202 VSS u_destuffer\/_15_ 0.017174
203 VSS u_destuffer\/_16_ 0.001322
204 VSS u_destuffer\/_17_ 0.030293
205 VSS u_destuffer\/_18_ 0.073548
206 VSS u_destuffer\/_19_ 0.014875
207 VSS u_destuffer\/_20_ 0.051401
208 VSS u_destuffer\/_21_ 0.014875
209 VSS u_destuffer\/ones[0] 0.178895
210 VSS u_destuffer\/ones[1] 0.101898
211 VSS u_destuffer\/ones[2] 0.055831
212 VSS u_encoder\/_00_ 0.017605
213 VSS u_encoder\/_01_ 0.035401
214 VSS u_encoder\/_02_ 0.044624
215 VSS u_encoder\/_03_ 0.016725
216 VSS u_encoder\/_04_ 0.032266
217 VSS u_encoder\/_05_ 0.047709
218 VSS u_encoder\/_06_ 0.042250
219 VSS u_eop_detector\/_00_ 0.031600
220 VSS u_eop_detector\/_02_ 0.014875
221 VSS u_eop_detector\/_03_ 0.014875
222 VSS u_eop_detector\/_04_ 0.014875
223 VSS u_eop_detector\/_05_ 0.014875
224 VSS u_eop_detector\/_07_ 0.029750
225 VSS u_eop_detector\/_08_ 0.066281
226 VSS u_eop_detector\/_09_ 0.174590
227 VSS u_eop_detector\/_10_ 0.177837
228 VSS u_eop_detector\/_11_ 0.018658
229 VSS u_eop_detector\/_12_ 0.088918
230 VSS u_eop_detector\/_13_ 0.085943
231 VSS u_eop_detector\/_14_ 0.032404
232 VSS u_eop_detector\/_15_ 0.156436
233 VSS u_eop_detector\/_16_ 0.014875
234 VSS u_eop_detector\/_17_ 0.029750
235 VSS u_eop_detector\/_18_ 0.040162
236 VSS u_eop_detector\/_19_ 0.015866
237 VSS u_eop_detector\/_20_ 0.017196
238 VSS u_eop_detector\/_21_ 0.025452
239 VSS u_eop_detector\/_24_ 0.014875
240 VSS u_eop_detector\/_25_ 0.029750
241 VSS u_eop_detector\/_26_ 0.014875
242 VSS u_eop_detector\/se0_count[0] 0.035447
243 VSS u_eop_detector\/se0_count[1] 0.031600
244 VSS u_eop_detector\/se0_count[2] 0.062443
245 VSS u_eop_detector\/se0_count[3] 0.044624
246 VSS u_eop_detector\/se0_count[4] 0.014875
247 VSS u_eop_detector\/se0_count[5] 0.017586
248 VSS u_stuffer\/_00_ 0.018968
249 VSS u_stuffer\/_01_ 0.088278
250 VSS u_stuffer\/_02_ 0.014875
251 VSS u_stuffer\/_03_ 0.020572
252 VSS u_stuffer\/_04_ 0.016725
253 VSS u_stuffer\/_06_ 0.127427
254 VSS u_stuffer\/_07_ 0.029750
255 VSS u_stuffer\/_08_ 0.014875
256 VSS u_stuffer\/_10_ 0.067928
257 VSS u_stuffer\/_11_ 0.143961
258 VSS u_stuffer\/_12_ 0.014875
259 VSS u_stuffer\/_13_ 0.014875
260 VSS u_stuffer\/_14_ 0.088918
261 VSS u_stuffer\/_16_ 0.083299
262 VSS u_stuffer\/_17_ 0.088918
263 VSS u_stuffer\/ones[0] 0.134700
264 VSS u_stuffer\/ones[1] 0.035447
265 VSS u_stuffer\/ones[2] 0.032460
266 VSS u_sync_detector\/_02_ 0.021651
267 VSS u_sync_detector\/_03_ 0.029915
268 VSS u_sync_detector\/_04_ 0.029750
269 VSS u_sync_detector\/_05_ 0.021309
270 VSS u_sync_detector\/_07_ 0.014875
271 VSS u_sync_detector\/_09_ 0.121551
272 VSS u_sync_detector\/_10_ 0.103483
273 VSS u_sync_detector\/_11_ 0.026775
274 VSS u_sync_detector\/_12_ 0.014875
275 VSS u_sync_detector\/_13_ 0.059260
276 VSS u_sync_detector\/_15_ 0.077426
277 VSS u_sync_detector\/match[0] 0.172642
278 VSS u_sync_detector\/match[1] 0.045229
279 VSS u_sync_detector\/match[2] 0.144649
280 VSS u_sync_detector\/match[3] 0.029750
*RES
1 VSS VSS:2 0.265200
2 VSS VSS:3 0.217100
3 VSS VSS:4 0.196200
4 VSS VSS:5 0.181100
5 VSS VSS:6 0.187100
6 VSS VSS:7 0.208900
7 VSS VSS:8 0.161800
8 VSS VSS:9 0.155500
9 VSS VSS:10 0.282400
10 VSS VSS:11 0.228100
11 VSS VSS:12 0.191700
12 VSS VSS:13 0.244900
13 VSS VSS:14 0.129300
14 VSS VSS:15 0.141500
15 VSS VSS:16 0.149000
16 VSS VSS:17 0.167800
17 VSS VSS:18 0.193900
18 VSS VSS:19 0.112200
19 VSS VSS:20 0.102900
20 VSS VSS:21 0.212600
21 VSS VSS:22 0.258500
22 VSS VSS:23 0.220800
23 VSS VSS:24 0.091800
24 VSS VSS:25 0.078500
25 VSS VSS:26 0.100400
26 VSS VSS:27 0.195900
27 VSS VSS:28 0.210400
28 VSS VSS:29 0.168600
29 VSS VSS:30 0.129000
30 VSS VSS:31 0.128800
31 VSS VSS:32 0.247700
32 VSS VSS:33 0.108200
33 VSS VSS:34 0.061000
34 VSS VSS:35 0.051000
35 VSS VSS:36 0.081000
36 VSS VSS:37 0.203000
37 VSS VSS:38 0.096700
38 VSS VSS:39 0.084200
39 VSS VSS:40 0.109600
40 VSS VSS:41 0.175900
41 VSS VSS:42 0.244300
42 VSS VSS:43 0.025000
43 VSS VSS:44 0.115600
44 VSS VSS:45 0.198900
45 VSS VSS:46 0.179800
46 VSS VSS:47 0.029900
47 VSS VSS:48 0.032400
48 VSS VSS:49 0.086000
49 VSS VSS:50 0.137900
50 VSS VSS:51 0.241800
51 VSS VSS:52 0.200800
52 VSS VSS:53 0.139300
53 VSS VSS:54 0.035400
54 VSS VSS:55 0.159000
55 VSS VSS:56 0.085000
56 VSS VSS:57 0.056500
57 VSS VSS:58 0.077400
58 VSS VSS:59 0.111400
59 VSS VSS:60 0.159300
60 VSS VSS:61 0.239100
61 VSS VSS:62 0.069200
62 VSS VSS:63 0.116600
63 VSS VSS:64 0.232700
64 VSS VSS:65 0.215900
65 VSS VSS:66 0.096500
66 VSS VSS:67 0.087100
67 VSS VSS:68 0.122200
68 VSS VSS:69 0.225200
69 VSS VSS:70 0.121800
70 VSS VSS:71 0.124600
71 VSS VSS:72 0.112600
72 VSS VSS:73 0.128500
73 VSS VSS:74 0.154400
74 VSS VSS:75 0.265200
75 VSS VSS:76 0.173300
76 VSS VSS:77 0.181800
77 VSS VSS:78 0.217400
78 VSS VSS:79 0.212800
79 VSS VSS:80 0.161100
80 VSS VSS:81 0.196200
81 VSS VSS:82 0.174000
82 VSS VSS:83 0.291400
83 VSS VSS:84 0.186700
84 VSS VSS:85 0.229400
85 VSS VSS:86 0.209600
86 VSS VSS:87 0.195300
87 VSS VSS:88 0.269000
88 VSS VSS:89 0.219100
89 VSS VSS:90 0.177300
90 VSS VSS:91 0.156400
91 VSS VSS:92 0.158600
92 VSS VSS:93 0.161300
93 VSS VSS:94 0.175200
94 VSS VSS:95 0.151200
95 VSS VSS:96 0.152900
96 VSS VSS:97 0.157900
97 VSS VSS:98 0.169900
98 VSS VSS:99 0.175700
99 VSS VSS:100 0.157200
100 VSS VSS:101 0.126800
101 VSS VSS:102 0.132700
102 VSS VSS:103 0.168900
103 VSS VSS:104 0.105300
104 VSS VSS:105 0.127300
105 VSS VSS:106 0.134500
106 VSS VSS:107 0.103900
107 VSS VSS:108 0.110500
108 VSS VSS:109 0.231700
109 VSS VSS:110 0.216600
110 VSS VSS:111 0.190900
111 VSS VSS:112 0.079900
112 VSS VSS:113 0.079700
113 VSS VSS:114 0.085500
114 VSS VSS:115 0.095200
115 VSS VSS:116 0.045700
116 VSS VSS:117 0.063200
117 VSS VSS:118 0.068500
118 VSS VSS:119 0.051600
119 VSS VSS:120 0.019000
120 VSS VSS:121 0.091500
121 VSS VSS:122 0.043400
122 VSS VSS:123 0.101200
123 VSS VSS:124 0.187300
124 VSS VSS:125 0.196100
125 VSS VSS:126 0.203800
126 VSS VSS:127 0.142900
127 VSS VSS:128 0.174300
128 VSS VSS:129 0.142600
129 VSS VSS:130 0.110800
130 VSS VSS:131 0.054800
131 VSS VSS:132 0.060000
132 VSS VSS:133 0.120100
133 VSS VSS:134 0.109600
134 VSS VSS:135 0.207600
135 VSS VSS:136 0.109200
136 VSS VSS:137 0.179200
137 VSS VSS:138 0.220200
138 VSS VSS:139 0.189400
139 VSS VSS:140 0.208600
140 VSS VSS:141 0.148100
141 VSS VSS:142 0.230100
142 VSS VSS:143 0.183800
143 VSS VSS:144 0.233400
144 VSS VSS:145 0.203000
145 VSS VSS:146 0.243600
146 VSS VSS:147 0.170400
147 VSS VSS:148 0.166900
148 VSS VSS:149 0.190800
149 VSS VSS:150 0.193100
150 VSS VSS:151 0.244800
151 VSS VSS:152 0.177600
152 VSS VSS:153 0.156700
153 VSS VSS:154 0.161900
154 VSS VSS:155 0.151500
155 VSS VSS:156 0.158700
156 VSS VSS:157 0.176900
157 VSS VSS:158 0.158600
158 VSS VSS:159 0.127400
159 VSS VSS:160 0.133500
160 VSS VSS:161 0.105900
161 VSS VSS:162 0.136100
162 VSS VSS:163 0.111600
163 VSS VSS:164 0.080600
164 VSS VSS:165 0.097200
165 VSS VSS:166 0.045400
166 VSS VSS:167 0.064900
167 VSS VSS:168 0.070300
168 VSS VSS:169 0.197300
169 VSS VSS:170 0.041000
170 VSS VSS:171 0.103600
171 VSS VSS:172 0.189700
172 VSS VSS:173 0.103300
173 VSS VSS:174 0.070100
174 VSS VSS:175 0.135100
175 VSS VSS:176 0.034000
176 VSS VSS:177 0.202000
177 VSS VSS:178 0.054900
178 VSS VSS:179 0.140700
179 VSS VSS:180 0.060000
180 VSS VSS:181 0.111100
181 VSS VSS:182 0.108800
182 VSS VSS:183 0.185400
183 VSS VSS:184 0.210100
184 VSS VSS:185 0.191300
185 VSS VSS:186 0.210600
186 VSS VSS:187 0.232000
187 VSS VSS:188 0.258900
188 VSS VSS:189 0.169800
189 VSS VSS:190 0.166600
190 VSS VSS:191 0.257000
191 VSS VSS:192 0.243800
192 VSS VSS:193 0.276800
193 VSS VSS:194 0.202700
194 VSS VSS:195 0.260700
195 VSS VSS:196 0.200600
196 VSS VSS:197 0.152300
197 VSS VSS:198 0.234300
198 VSS VSS:199 0.172900
199 VSS VSS:200 0.215000
200 VSS VSS:201 0.211300
201 VSS VSS:202 0.190500
202 VSS VSS:203 0.199300
203 VSS VSS:204 0.253600
204 VSS VSS:205 0.245800
205 VSS VSS:206 0.247800
206 VSS VSS:207 0.279000
207 VSS VSS:208 0.281300
208 VSS VSS:209 0.209500
209 VSS VSS:210 0.211400
210 VSS VSS:211 0.162800
211 VSS VSS:212 0.161700
212 VSS VSS:213 0.160700
213 VSS VSS:214 0.159700
214 VSS VSS:215 0.204600
215 VSS VSS:216 0.206600
216 VSS VSS:217 0.263100
217 VSS VSS:218 0.265500
218 VSS VSS:219 0.172300
219 VSS VSS:220 0.174300
220 VSS VSS:221 0.189800
221 VSS VSS:222 0.191900
222 VSS VSS:223 0.202900
223 VSS VSS:224 0.205200
224 VSS VSS:225 0.154500
225 VSS VSS:226 0.156800
226 VSS VSS:227 0.236900
227 VSS VSS:228 0.239600
228 VSS VSS:229 0.132800
229 VSS VSS:230 0.135200
230 VSS VSS:231 0.175500
231 VSS VSS:232 0.178200
232 VSS VSS:233 0.117100
233 VSS VSS:234 0.119700
234 VSS VSS:235 0.159200
235 VSS VSS:236 0.162000
236 VSS VSS:237 0.137400
237 VSS VSS:238 0.142600
238 VSS VSS:239 0.217900
239 VSS VSS:240 0.220800
240 VSS VSS:241 0.202100
241 VSS VSS:242 0.199200
242 VSS VSS:243 0.214200
243 VSS VSS:244 0.217100
244 VSS VSS:245 0.206100
245 VSS VSS:246 0.203200
246 VSS VSS:247 0.200300
247 VSS VSS:248 0.197400
248 VSS VSS:249 0.167100
249 VSS VSS:250 0.164300
250 VSS VSS:251 0.161400
251 VSS VSS:252 0.158500
252 VSS VSS:253 0.081800
253 VSS VSS:254 0.123400
254 VSS VSS:255 0.215500
255 VSS VSS:256 0.128500
256 VSS VSS:257 0.231600
257 VSS VSS:258 0.234200
258 VSS VSS:259 0.236700
259 VSS VSS:260 0.239400
260 VSS VSS:261 0.181300
261 VSS VSS:262 0.179000
262 VSS VSS:263 0.176700
263 VSS VSS:264 0.174500
264 VSS VSS:265 0.256000
265 VSS VSS:266 0.258500
266 VSS VSS:267 0.243900
267 VSS VSS:268 0.241700
268 VSS VSS:269 0.239500
269 VSS VSS:270 0.237400
270 VSS VSS:271 0.166000
271 VSS VSS:272 0.162400
272 VSS VSS:273 0.215600
273 VSS VSS:274 0.249800
274 VSS VSS:275 0.283600
275 VSS VSS:276 0.289800
276 VSS VSS:277 0.236900
277 VSS VSS:278 0.211700
278 VSS VSS:279 0.190300
279 VSS VSS:280 0.178300
280 VSS VSS:281 0.192900
281 VSS VSS:282 0.159100
282 VSS VSS:283 0.256400
283 VSS VSS:284 0.213400
284 VSS VSS:285 0.158800
285 VSS VSS:286 0.208600
286 VSS VSS:287 0.267900
287 VSS VSS:288 0.253000
288 VSS VSS:289 0.212900
289 VSS VSS:290 0.219800
290 VSS VSS:291 0.132800
291 VSS VSS:292 0.132300
292 VSS VSS:293 0.176300
293 VSS VSS:294 0.194100
294 VSS VSS:295 0.207500
295 VSS VSS:296 0.168600
296 VSS VSS:297 0.147400
297 VSS VSS:298 0.222300
298 VSS VSS:299 0.129100
299 VSS VSS:300 0.108400
300 VSS VSS:301 0.185400
301 VSS VSS:302 0.229600
302 VSS VSS:303 0.159100
303 VSS VSS:304 0.242200
304 VSS VSS:305 0.249900
305 VSS VSS:306 0.113300
306 VSS VSS:307 0.078900
307 VSS VSS:308 0.083900
308 VSS VSS:309 0.166900
309 VSS VSS:310 0.137700
310 VSS VSS:311 0.180900
311 VSS VSS:312 0.240900
312 VSS VSS:313 0.198100
313 VSS VSS:314 0.156600
314 VSS VSS:315 0.103000
315 VSS VSS:316 0.216700
316 VSS VSS:317 0.137900
317 VSS VSS:318 0.084000
318 VSS VSS:319 0.056600
319 VSS VSS:320 0.059800
320 VSS VSS:321 0.122400
321 VSS VSS:322 0.164800
322 VSS VSS:323 0.234500
323 VSS VSS:324 0.126000
324 VSS VSS:325 0.080900
325 VSS VSS:326 0.144700
326 VSS VSS:327 0.212500
327 VSS VSS:328 0.035800
328 VSS VSS:329 0.084400
329 VSS VSS:330 0.198700
330 VSS VSS:331 0.134500
331 VSS VSS:332 0.139700
332 VSS VSS:333 0.223700
333 VSS VSS:334 0.231000
334 VSS VSS:335 0.147600
335 VSS VSS:336 0.002900
336 VSS VSS:337 0.196300
337 VSS VSS:338 0.220000
338 VSS VSS:339 0.064300
339 VSS VSS:340 0.116800
340 VSS VSS:341 0.106300
341 VSS VSS:342 0.209600
342 VSS VSS:343 0.194500
343 VSS VSS:344 0.155700
344 VSS VSS:345 0.232800
345 VSS VSS:346 0.171000
346 VSS VSS:347 0.040600
347 VSS VSS:348 0.127800
348 VSS VSS:349 0.111400
349 VSS VSS:350 0.071200
350 VSS VSS:351 0.058500
351 VSS VSS:352 0.084300
352 VSS VSS:353 0.129100
353 VSS VSS:354 0.207600
354 VSS VSS:355 0.187700
355 VSS VSS:356 0.090200
356 VSS VSS:357 0.095400
357 VSS VSS:358 0.202500
358 VSS VSS:359 0.082000
359 VSS VSS:360 0.125600
360 VSS VSS:361 0.201900
361 VSS VSS:362 0.246200
362 VSS VSS:363 0.115200
363 VSS VSS:364 0.089200
364 VSS VSS:365 0.253800
365 VSS VSS:366 0.109600
366 VSS VSS:367 0.213000
367 VSS VSS:368 0.127000
368 VSS VSS:369 0.242000
369 VSS VSS:370 0.172300
370 VSS VSS:371 0.142000
371 VSS VSS:372 0.116800
372 VSS VSS:373 0.117100
373 VSS VSS:374 0.135000
374 VSS VSS:375 0.236600
375 VSS VSS:376 0.195000
376 VSS VSS:377 0.161000
377 VSS VSS:378 0.260900
378 VSS VSS:379 0.243600
379 VSS VSS:380 0.190000
380 VSS VSS:381 0.159700
381 VSS VSS:382 0.235200
382 VSS VSS:383 0.165200
383 VSS VSS:384 0.162000
384 VSS VSS:385 0.215900
385 VSS VSS:386 0.187300
386 VSS VSS:387 0.265800
387 VSS VSS:388 0.186400
388 VSS VSS:389 0.194100
389 VSS VSS:390 0.214200
390 VSS VSS:391 0.249200
391 VSS VSS:392 0.225400
392 VSS VSS:393 0.204800
393 VSS VSS:394 0.247900
394 VSS VSS:395 0.236200
395 VSS VSS:396 0.268300
396 VSS VSS:397 0.200900
397 VSS VSS:398 0.195300
398 VSS VSS:399 0.251800
399 VSS VSS:400 0.164000
400 VSS VSS:401 0.180400
401 VSS VSS:402 0.192000
402 VSS VSS:403 0.143900
403 VSS VSS:404 0.224400
404 VSS VSS:405 0.122200
405 VSS VSS:406 0.163000
406 VSS VSS:407 0.105200
407 VSS VSS:408 0.146500
408 VSS VSS:409 0.190300
409 VSS VSS:410 0.204300
410 VSS VSS:411 0.215700
411 VSS VSS:412 0.200600
412 VSS VSS:413 0.195900
413 VSS VSS:414 0.194500
414 VSS VSS:415 0.245000
415 VSS VSS:416 0.196200
416 VSS VSS:417 0.259900
417 VSS VSS:418 0.237600
418 VSS VSS:419 0.270000
419 VSS VSS:420 0.202300
420 VSS VSS:421 0.196700
421 VSS VSS:422 0.253600
422 VSS VSS:423 0.165300
423 VSS VSS:424 0.181900
424 VSS VSS:425 0.193700
425 VSS VSS:426 0.145600
426 VSS VSS:427 0.226400
427 VSS VSS:428 0.123900
428 VSS VSS:429 0.165000
429 VSS VSS:430 0.107100
430 VSS VSS:431 0.148600
431 VSS VSS:432 0.206400
432 VSS VSS:433 0.213500
433 VSS VSS:434 0.202800
434 VSS VSS:435 0.246800
435 VSS VSS:436 0.239600
436 VSS VSS:437 0.272200
437 VSS VSS:438 0.204200
438 VSS VSS:439 0.198600
439 VSS VSS:440 0.255900
440 VSS VSS:441 0.167200
441 VSS VSS:442 0.184000
442 VSS VSS:443 0.195900
443 VSS VSS:444 0.147700
444 VSS VSS:445 0.229000
445 VSS VSS:446 0.126300
446 VSS VSS:447 0.167600
447 VSS VSS:448 0.109700
448 VSS VSS:449 0.151400
449 VSS VSS:450 0.209400
450 VSS VSS:451 0.210600
451 VSS VSS:452 0.205700
452 VSS VSS:453 0.249200
453 VSS VSS:454 0.241100
454 VSS VSS:455 0.273900
455 VSS VSS:456 0.200000
456 VSS VSS:457 0.257700
457 VSS VSS:458 0.197600
458 VSS VSS:459 0.149400
459 VSS VSS:460 0.231000
460 VSS VSS:461 0.169600
461 VSS VSS:462 0.211500
462 VSS VSS:463 0.207900
463 VSS VSS:464 0.193900
464 VSS VSS:465 0.196400
465 VSS VSS:466 0.251000
466 VSS VSS:467 0.292100
467 VSS VSS:468 0.238900
468 VSS VSS:469 0.213300
469 VSS VSS:470 0.191400
470 VSS VSS:471 0.177900
471 VSS VSS:472 0.191700
472 VSS VSS:473 0.159700
473 VSS VSS:474 0.254100
474 VSS VSS:475 0.163900
475 VSS VSS:476 0.255300
476 VSS VSS:477 0.214900
477 VSS VSS:478 0.217700
478 VSS VSS:479 0.133400
479 VSS VSS:480 0.131800
480 VSS VSS:481 0.170600
481 VSS VSS:482 0.145800
482 VSS VSS:483 0.224900
483 VSS VSS:484 0.130900
484 VSS VSS:485 0.109300
485 VSS VSS:486 0.183000
486 VSS VSS:487 0.227000
487 VSS VSS:488 0.252600
488 VSS VSS:489 0.115500
489 VSS VSS:490 0.079600
490 VSS VSS:491 0.082800
491 VSS VSS:492 0.164300
492 VSS VSS:493 0.243700
493 VSS VSS:494 0.200800
494 VSS VSS:495 0.159200
495 VSS VSS:496 0.100900
496 VSS VSS:497 0.213900
497 VSS VSS:498 0.140600
498 VSS VSS:499 0.086400
499 VSS VSS:500 0.057900
500 VSS VSS:501 0.058300
501 VSS VSS:502 0.237400
502 VSS VSS:503 0.128700
503 VSS VSS:504 0.078500
504 VSS VSS:505 0.141900
505 VSS VSS:506 0.209600
506 VSS VSS:507 0.038000
507 VSS VSS:508 0.081700
508 VSS VSS:509 0.140300
509 VSS VSS:510 0.145500
510 VSS VSS:511 0.233900
511 VSS VSS:512 0.144700
512 VSS VSS:513 0.005600
513 VSS VSS:514 0.067200
514 VSS VSS:515 0.119700
515 VSS VSS:516 0.103500
516 VSS VSS:517 0.206700
517 VSS VSS:518 0.209000
518 VSS VSS:519 0.170000
519 VSS VSS:520 0.235700
520 VSS VSS:521 0.173900
521 VSS VSS:522 0.042200
522 VSS VSS:523 0.125000
523 VSS VSS:524 0.114000
524 VSS VSS:525 0.073100
525 VSS VSS:526 0.057400
526 VSS VSS:527 0.082100
527 VSS VSS:528 0.126400
528 VSS VSS:529 0.204800
529 VSS VSS:530 0.092400
530 VSS VSS:531 0.093900
531 VSS VSS:532 0.199800
532 VSS VSS:533 0.081700
533 VSS VSS:534 0.121200
534 VSS VSS:535 0.248900
535 VSS VSS:536 0.117100
536 VSS VSS:537 0.089900
537 VSS VSS:538 0.256400
538 VSS VSS:539 0.108900
539 VSS VSS:540 0.218000
540 VSS VSS:541 0.130100
541 VSS VSS:542 0.229000
542 VSS VSS:543 0.183600
543 VSS VSS:544 0.143800
544 VSS VSS:545 0.117600
545 VSS VSS:546 0.116400
546 VSS VSS:547 0.133400
547 VSS VSS:548 0.234100
548 VSS VSS:549 0.197100
549 VSS VSS:550 0.159400
550 VSS VSS:551 0.246000
551 VSS VSS:552 0.188000
552 VSS VSS:553 0.160000
553 VSS VSS:554 0.246100
554 VSS VSS:555 0.166700
555 VSS VSS:556 0.162900
556 VSS VSS:557 0.217800
557 VSS VSS:558 0.188700
558 VSS VSS:559 0.263500
559 VSS VSS:560 0.186700
560 VSS VSS:561 0.217100
561 VSS VSS:562 0.251100
562 VSS VSS:563 0.226900
563 VSS VSS:564 0.205900
564 VSS VSS:565 0.246000
565 VSS VSS:566 0.285800
566 VSS VSS:567 0.233500
567 VSS VSS:568 0.208800
568 VSS VSS:569 0.188200
569 VSS VSS:570 0.178900
570 VSS VSS:571 0.194700
571 VSS VSS:572 0.158500
572 VSS VSS:573 0.260400
573 VSS VSS:574 0.248900
574 VSS VSS:575 0.209300
575 VSS VSS:576 0.223100
576 VSS VSS:577 0.132100
577 VSS VSS:578 0.133600
578 VSS VSS:579 0.165100
579 VSS VSS:580 0.149800
580 VSS VSS:581 0.218200
581 VSS VSS:582 0.126500
582 VSS VSS:583 0.107300
583 VSS VSS:584 0.189500
584 VSS VSS:585 0.234000
585 VSS VSS:586 0.245400
586 VSS VSS:587 0.110100
587 VSS VSS:588 0.078400
588 VSS VSS:589 0.086100
589 VSS VSS:590 0.171300
590 VSS VSS:591 0.236200
591 VSS VSS:592 0.193500
592 VSS VSS:593 0.152200
593 VSS VSS:594 0.106400
594 VSS VSS:595 0.221200
595 VSS VSS:596 0.133500
596 VSS VSS:597 0.080500
597 VSS VSS:598 0.055000
598 VSS VSS:599 0.062600
599 VSS VSS:600 0.229800
600 VSS VSS:601 0.121400
601 VSS VSS:602 0.084800
602 VSS VSS:603 0.149200
603 VSS VSS:604 0.217100
604 VSS VSS:605 0.032700
605 VSS VSS:606 0.089100
606 VSS VSS:607 0.226200
607 VSS VSS:608 0.152300
608 VSS VSS:609 0.002600
609 VSS VSS:610 0.059600
610 VSS VSS:611 0.112100
611 VSS VSS:612 0.110900
612 VSS VSS:613 0.214300
613 VSS VSS:614 0.228100
614 VSS VSS:615 0.166400
615 VSS VSS:616 0.038500
616 VSS VSS:617 0.132500
617 VSS VSS:618 0.107100
618 VSS VSS:619 0.067900
619 VSS VSS:620 0.060200
620 VSS VSS:621 0.087800
621 VSS VSS:622 0.133400
622 VSS VSS:623 0.212200
623 VSS VSS:624 0.086900
624 VSS VSS:625 0.097900
625 VSS VSS:626 0.206800
626 VSS VSS:627 0.241800
627 VSS VSS:628 0.112300
628 VSS VSS:629 0.088600
629 VSS VSS:630 0.249300
630 VSS VSS:631 0.110500
631 VSS VSS:632 0.139400
632 VSS VSS:633 0.116000
633 VSS VSS:634 0.118600
634 VSS VSS:635 0.137900
635 VSS VSS:636 0.241000
636 VSS VSS:637 0.191300
637 VSS VSS:638 0.163600
638 VSS VSS:639 0.239800
639 VSS VSS:640 0.193400
640 VSS VSS:641 0.159100
641 VSS VSS:642 0.213100
642 VSS VSS:643 0.185400
643 VSS VSS:644 0.269700
644 VSS VSS:645 0.185700
645 VSS VSS:646 0.246400
646 VSS VSS:647 0.223100
647 VSS VSS:648 0.203500
648 VSS VSS:649 0.251100
649 VSS VSS:650 0.284100
650 VSS VSS:651 0.232100
651 VSS VSS:652 0.207700
652 VSS VSS:653 0.187400
653 VSS VSS:654 0.179400
654 VSS VSS:655 0.195600
655 VSS VSS:656 0.158200
656 VSS VSS:657 0.262200
657 VSS VSS:658 0.247200
658 VSS VSS:659 0.207700
659 VSS VSS:660 0.224800
660 VSS VSS:661 0.131800
661 VSS VSS:662 0.134100
662 VSS VSS:663 0.163700
663 VSS VSS:664 0.151100
664 VSS VSS:665 0.216300
665 VSS VSS:666 0.125300
666 VSS VSS:667 0.106800
667 VSS VSS:668 0.191400
668 VSS VSS:669 0.235900
669 VSS VSS:670 0.243400
670 VSS VSS:671 0.108500
671 VSS VSS:672 0.078100
672 VSS VSS:673 0.087100
673 VSS VSS:674 0.173200
674 VSS VSS:675 0.234200
675 VSS VSS:676 0.191500
676 VSS VSS:677 0.150300
677 VSS VSS:678 0.108000
678 VSS VSS:679 0.223200
679 VSS VSS:680 0.131500
680 VSS VSS:681 0.078800
681 VSS VSS:682 0.054200
682 VSS VSS:683 0.063900
683 VSS VSS:684 0.227600
684 VSS VSS:685 0.119300
685 VSS VSS:686 0.086700
686 VSS VSS:687 0.151300
687 VSS VSS:688 0.219200
688 VSS VSS:689 0.031400
689 VSS VSS:690 0.091200
690 VSS VSS:691 0.224000
691 VSS VSS:692 0.154500
692 VSS VSS:693 0.004600
693 VSS VSS:694 0.057500
694 VSS VSS:695 0.110000
695 VSS VSS:696 0.113000
696 VSS VSS:697 0.216500
697 VSS VSS:698 0.226000
698 VSS VSS:699 0.164200
699 VSS VSS:700 0.037600
700 VSS VSS:701 0.134600
701 VSS VSS:702 0.105200
702 VSS VSS:703 0.066600
703 VSS VSS:704 0.061300
704 VSS VSS:705 0.089600
705 VSS VSS:706 0.135400
706 VSS VSS:707 0.214300
707 VSS VSS:708 0.085400
708 VSS VSS:709 0.099200
709 VSS VSS:710 0.208800
710 VSS VSS:711 0.239700
711 VSS VSS:712 0.110900
712 VSS VSS:713 0.088200
713 VSS VSS:714 0.247300
714 VSS VSS:715 0.111100
715 VSS VSS:716 0.138200
716 VSS VSS:717 0.115600
717 VSS VSS:718 0.119300
718 VSS VSS:719 0.139100
719 VSS VSS:720 0.242900
720 VSS VSS:721 0.189700
721 VSS VSS:722 0.164900
722 VSS VSS:723 0.238000
723 VSS VSS:724 0.195000
724 VSS VSS:725 0.159000
725 VSS VSS:726 0.211700
726 VSS VSS:727 0.184400
727 VSS VSS:728 0.271500
728 VSS VSS:729 0.185600
729 VSS VSS:730 0.245000
730 VSS VSS:731 0.222000
731 VSS VSS:732 0.202800
732 VSS VSS:733 0.252600
733 VSS VSS:734 0.281800
734 VSS VSS:735 0.272500
735 VSS VSS:736 0.230200
736 VSS VSS:737 0.222600
737 VSS VSS:738 0.206100
738 VSS VSS:739 0.200100
739 VSS VSS:740 0.186400
740 VSS VSS:741 0.182800
741 VSS VSS:742 0.180000
742 VSS VSS:743 0.183000
743 VSS VSS:744 0.196900
744 VSS VSS:745 0.202600
745 VSS VSS:746 0.157800
746 VSS VSS:747 0.156700
747 VSS VSS:748 0.264500
748 VSS VSS:749 0.274200
749 VSS VSS:750 0.244900
750 VSS VSS:751 0.235500
751 VSS VSS:752 0.205700
752 VSS VSS:753 0.197700
753 VSS VSS:754 0.227000
754 VSS VSS:755 0.236100
755 VSS VSS:756 0.131400
756 VSS VSS:757 0.130300
757 VSS VSS:758 0.134900
758 VSS VSS:759 0.138400
759 VSS VSS:760 0.161800
760 VSS VSS:761 0.154300
761 VSS VSS:762 0.152800
762 VSS VSS:763 0.160200
763 VSS VSS:764 0.213800
764 VSS VSS:765 0.203400
765 VSS VSS:766 0.123700
766 VSS VSS:767 0.117600
767 VSS VSS:768 0.106200
768 VSS VSS:769 0.104400
769 VSS VSS:770 0.193800
770 VSS VSS:771 0.204000
771 VSS VSS:772 0.238600
772 VSS VSS:773 0.249400
773 VSS VSS:774 0.240700
774 VSS VSS:775 0.229800
775 VSS VSS:776 0.106500
776 VSS VSS:777 0.098700
777 VSS VSS:778 0.077800
778 VSS VSS:779 0.077900
779 VSS VSS:780 0.088500
780 VSS VSS:781 0.094800
781 VSS VSS:782 0.175900
782 VSS VSS:783 0.186700
783 VSS VSS:784 0.231400
784 VSS VSS:785 0.220000
785 VSS VSS:786 0.188800
786 VSS VSS:787 0.177700
787 VSS VSS:788 0.147700
788 VSS VSS:789 0.137400
789 VSS VSS:790 0.110200
790 VSS VSS:791 0.119700
791 VSS VSS:792 0.226000
792 VSS VSS:793 0.237400
793 VSS VSS:794 0.128800
794 VSS VSS:795 0.118000
795 VSS VSS:796 0.076600
796 VSS VSS:797 0.068200
797 VSS VSS:798 0.053400
798 VSS VSS:799 0.051400
799 VSS VSS:800 0.065700
800 VSS VSS:801 0.073700
801 VSS VSS:802 0.224800
802 VSS VSS:803 0.213100
803 VSS VSS:804 0.116600
804 VSS VSS:805 0.105700
805 VSS VSS:806 0.089200
806 VSS VSS:807 0.099700
807 VSS VSS:808 0.154000
808 VSS VSS:809 0.165500
809 VSS VSS:810 0.222100
810 VSS VSS:811 0.233800
811 VSS VSS:812 0.029700
812 VSS VSS:813 0.025400
813 VSS VSS:814 0.094000
814 VSS VSS:815 0.105600
815 VSS VSS:816 0.221100
816 VSS VSS:817 0.209200
817 VSS VSS:818 0.157400
818 VSS VSS:819 0.169200
819 VSS VSS:820 0.007500
820 VSS VSS:821 0.019400
821 VSS VSS:822 0.054600
822 VSS VSS:823 0.042800
823 VSS VSS:824 0.107200
824 VSS VSS:825 0.095700
825 VSS VSS:826 0.115800
826 VSS VSS:827 0.127500
827 VSS VSS:828 0.219400
828 VSS VSS:829 0.231200
829 VSS VSS:830 0.223100
830 VSS VSS:831 0.211300
831 VSS VSS:832 0.161400
832 VSS VSS:833 0.149700
833 VSS VSS:834 0.036600
834 VSS VSS:835 0.034700
835 VSS VSS:836 0.137400
836 VSS VSS:837 0.149000
837 VSS VSS:838 0.102700
838 VSS VSS:839 0.092700
839 VSS VSS:840 0.064900
840 VSS VSS:841 0.059100
841 VSS VSS:842 0.062700
842 VSS VSS:843 0.069600
843 VSS VSS:844 0.091900
844 VSS VSS:845 0.101900
845 VSS VSS:846 0.138000
846 VSS VSS:847 0.149100
847 VSS VSS:848 0.217100
848 VSS VSS:849 0.228700
849 VSS VSS:850 0.083300
850 VSS VSS:851 0.075700
851 VSS VSS:852 0.100900
852 VSS VSS:853 0.108600
853 VSS VSS:854 0.211500
854 VSS VSS:855 0.222600
855 VSS VSS:856 0.237000
856 VSS VSS:857 0.226000
857 VSS VSS:858 0.109200
858 VSS VSS:859 0.102400
859 VSS VSS:860 0.087800
860 VSS VSS:861 0.087300
861 VSS VSS:862 0.244700
862 VSS VSS:863 0.234000
863 VSS VSS:864 0.112000
864 VSS VSS:865 0.116300
865 VSS VSS:866 0.136500
866 VSS VSS:867 0.130300
867 VSS VSS:868 0.115100
868 VSS VSS:869 0.113700
869 VSS VSS:870 0.120200
870 VSS VSS:871 0.124600
871 VSS VSS:872 0.140800
872 VSS VSS:873 0.148200
873 VSS VSS:874 0.245500
874 VSS VSS:875 0.256100
875 VSS VSS:876 0.187700
876 VSS VSS:877 0.179400
877 VSS VSS:878 0.166600
878 VSS VSS:879 0.174100
879 VSS VSS:880 0.235700
880 VSS VSS:881 0.226200
881 VSS VSS:882 0.197000
882 VSS VSS:883 0.205600
883 VSS VSS:884 0.158900
884 VSS VSS:885 0.159200
885 VSS VSS:886 0.209900
886 VSS VSS:887 0.202800
887 VSS VSS:888 0.183200
888 VSS VSS:889 0.178500
889 VSS VSS:890 0.273800
890 VSS VSS:891 0.283400
891 VSS VSS:892 0.185400
892 VSS VSS:893 0.185200
893 VSS VSS:894 0.243200
894 VSS VSS:895 0.236100
895 VSS VSS:896 0.220600
896 VSS VSS:897 0.215000
897 VSS VSS:898 0.201900
898 VSS VSS:899 0.198600
899 VSS VSS:900 0.254500
900 VSS VSS:901 0.262400
901 VSS VSS:902 0.280100
902 VSS VSS:903 0.228800
903 VSS VSS:904 0.205000
904 VSS VSS:905 0.185700
905 VSS VSS:906 0.180500
906 VSS VSS:907 0.197900
907 VSS VSS:908 0.243100
908 VSS VSS:909 0.204200
909 VSS VSS:910 0.228600
910 VSS VSS:911 0.160300
911 VSS VSS:912 0.154100
912 VSS VSS:913 0.238700
913 VSS VSS:914 0.229300
914 VSS VSS:915 0.186700
915 VSS VSS:916 0.145800
916 VSS VSS:917 0.111900
917 VSS VSS:918 0.228100
918 VSS VSS:919 0.222600
919 VSS VSS:920 0.114600
920 VSS VSS:921 0.091100
921 VSS VSS:922 0.156100
922 VSS VSS:923 0.224200
923 VSS VSS:924 0.218900
924 VSS VSS:925 0.159500
925 VSS VSS:926 0.052400
926 VSS VSS:927 0.220900
927 VSS VSS:928 0.159200
928 VSS VSS:929 0.035900
929 VSS VSS:930 0.139500
930 VSS VSS:931 0.081900
931 VSS VSS:932 0.235000
932 VSS VSS:933 0.107800
933 VSS VSS:934 0.087600
934 VSS VSS:935 0.135300
935 VSS VSS:936 0.114700
936 VSS VSS:937 0.120900
937 VSS VSS:938 0.142100
938 VSS VSS:939 0.247400
939 VSS VSS:940 0.233900
940 VSS VSS:941 0.198600
941 VSS VSS:942 0.208600
942 VSS VSS:943 0.182300
943 VSS VSS:944 0.275500
944 VSS VSS:945 0.241900
945 VSS VSS:946 0.219500
946 VSS VSS:947 0.201200
947 VSS VSS:948 0.255900
948 VSS VSS:949 0.277000
949 VSS VSS:950 0.226300
950 VSS VSS:951 0.203000
951 VSS VSS:952 0.184500
952 VSS VSS:953 0.181400
953 VSS VSS:954 0.199800
954 VSS VSS:955 0.240100
955 VSS VSS:956 0.201600
956 VSS VSS:957 0.231600
957 VSS VSS:958 0.157900
958 VSS VSS:959 0.156500
959 VSS VSS:960 0.235100
960 VSS VSS:961 0.225600
961 VSS VSS:962 0.183100
962 VSS VSS:963 0.142400
963 VSS VSS:964 0.115000
964 VSS VSS:965 0.231800
965 VSS VSS:966 0.218800
966 VSS VSS:967 0.111000
967 VSS VSS:968 0.094500
968 VSS VSS:969 0.159900
969 VSS VSS:970 0.228100
970 VSS VSS:971 0.215000
971 VSS VSS:972 0.163400
972 VSS VSS:973 0.048600
973 VSS VSS:974 0.217100
974 VSS VSS:975 0.155400
975 VSS VSS:976 0.035100
976 VSS VSS:977 0.143300
977 VSS VSS:978 0.079300
978 VSS VSS:979 0.231400
979 VSS VSS:980 0.105600
980 VSS VSS:981 0.087300
981 VSS VSS:982 0.133200
982 VSS VSS:983 0.114200
983 VSS VSS:984 0.122300
984 VSS VSS:985 0.144500
985 VSS VSS:986 0.250900
986 VSS VSS:987 0.230800
987 VSS VSS:988 0.201400
988 VSS VSS:989 0.206200
989 VSS VSS:990 0.180700
990 VSS VSS:991 0.278700
991 VSS VSS:992 0.239500
992 VSS VSS:993 0.217700
993 VSS VSS:994 0.200100
994 VSS VSS:995 0.258500
995 VSS VSS:996 0.274800
996 VSS VSS:997 0.224400
997 VSS VSS:998 0.201500
998 VSS VSS:999 0.183600
999 VSS VSS:1000 0.182200
1000 VSS VSS:1001 0.201200
1001 VSS VSS:1002 0.156900
1002 VSS VSS:1003 0.271900
1003 VSS VSS:1004 0.237800
1004 VSS VSS:1005 0.199600
1005 VSS VSS:1006 0.233800
1006 VSS VSS:1007 0.130500
1007 VSS VSS:1008 0.137500
1008 VSS VSS:1009 0.156000
1009 VSS VSS:1010 0.158300
1010 VSS VSS:1011 0.205900
1011 VSS VSS:1012 0.119000
1012 VSS VSS:1013 0.104700
1013 VSS VSS:1014 0.201500
1014 VSS VSS:1015 0.246700
1015 VSS VSS:1016 0.232400
1016 VSS VSS:1017 0.100500
1017 VSS VSS:1018 0.077700
1018 VSS VSS:1019 0.093100
1019 VSS VSS:1020 0.184000
1020 VSS VSS:1021 0.222800
1021 VSS VSS:1022 0.180400
1022 VSS VSS:1023 0.139900
1023 VSS VSS:1024 0.117300
1024 VSS VSS:1025 0.234600
1025 VSS VSS:1026 0.120600
1026 VSS VSS:1027 0.070200
1027 VSS VSS:1028 0.051600
1028 VSS VSS:1029 0.071700
1029 VSS VSS:1030 0.215900
1030 VSS VSS:1031 0.108300
1031 VSS VSS:1032 0.097100
1032 VSS VSS:1033 0.162700
1033 VSS VSS:1034 0.231000
1034 VSS VSS:1035 0.026000
1035 VSS VSS:1036 0.102800
1036 VSS VSS:1037 0.212100
1037 VSS VSS:1038 0.166300
1038 VSS VSS:1039 0.016500
1039 VSS VSS:1040 0.045700
1040 VSS VSS:1041 0.098500
1041 VSS VSS:1042 0.124600
1042 VSS VSS:1043 0.228300
1043 VSS VSS:1044 0.214200
1044 VSS VSS:1045 0.152600
1045 VSS VSS:1046 0.034800
1046 VSS VSS:1047 0.146200
1047 VSS VSS:1048 0.095100
1048 VSS VSS:1049 0.060400
1049 VSS VSS:1050 0.067800
1050 VSS VSS:1051 0.099400
1051 VSS VSS:1052 0.146400
1052 VSS VSS:1053 0.225900
1053 VSS VSS:1054 0.077500
1054 VSS VSS:1055 0.106600
1055 VSS VSS:1056 0.219900
1056 VSS VSS:1057 0.228700
1057 VSS VSS:1058 0.104000
1058 VSS VSS:1059 0.087200
1059 VSS VSS:1060 0.236600
1060 VSS VSS:1061 0.115200
1061 VSS VSS:1062 0.131700
1062 VSS VSS:1063 0.113900
1063 VSS VSS:1064 0.123500
1064 VSS VSS:1065 0.146300
1065 VSS VSS:1066 0.253500
1066 VSS VSS:1067 0.181400
1067 VSS VSS:1068 0.172200
1068 VSS VSS:1069 0.228500
1069 VSS VSS:1070 0.203500
1070 VSS VSS:1071 0.159000
1071 VSS VSS:1072 0.204500
1072 VSS VSS:1073 0.179600
1073 VSS VSS:1074 0.281000
1074 VSS VSS:1075 0.185200
1075 VSS VSS:1076 0.237800
1076 VSS VSS:1077 0.216300
1077 VSS VSS:1078 0.199300
1078 VSS VSS:1079 0.260500
1079 VSS VSS:1080 0.270900
1080 VSS VSS:1081 0.221300
1081 VSS VSS:1082 0.199100
1082 VSS VSS:1083 0.182200
1083 VSS VSS:1084 0.183600
1084 VSS VSS:1085 0.203700
1085 VSS VSS:1086 0.233800
1086 VSS VSS:1087 0.196300
1087 VSS VSS:1088 0.237800
1088 VSS VSS:1089 0.153000
1089 VSS VSS:1090 0.161600
1090 VSS VSS:1091 0.227800
1091 VSS VSS:1092 0.217900
1092 VSS VSS:1093 0.175700
1093 VSS VSS:1094 0.135500
1094 VSS VSS:1095 0.121500
1095 VSS VSS:1096 0.239500
1096 VSS VSS:1097 0.210900
1097 VSS VSS:1098 0.103700
1098 VSS VSS:1099 0.101700
1099 VSS VSS:1100 0.167600
1100 VSS VSS:1101 0.236000
1101 VSS VSS:1102 0.207000
1102 VSS VSS:1103 0.171400
1103 VSS VSS:1104 0.040700
1104 VSS VSS:1105 0.209100
1105 VSS VSS:1106 0.147600
1106 VSS VSS:1107 0.034800
1107 VSS VSS:1108 0.151100
1108 VSS VSS:1109 0.074400
1109 VSS VSS:1110 0.223900
1110 VSS VSS:1111 0.101300
1111 VSS VSS:1112 0.087300
1112 VSS VSS:1113 0.129200
1113 VSS VSS:1114 0.113600
1114 VSS VSS:1115 0.125600
1115 VSS VSS:1116 0.149600
1116 VSS VSS:1117 0.258100
1117 VSS VSS:1118 0.224400
1118 VSS VSS:1119 0.207200
1119 VSS VSS:1120 0.201600
1120 VSS VSS:1121 0.177700
1121 VSS VSS:1122 0.285200
1122 VSS VSS:1123 0.234800
1123 VSS VSS:1124 0.214000
1124 VSS VSS:1125 0.198000
1125 VSS VSS:1126 0.263900
1126 VSS VSS:1127 0.268400
1127 VSS VSS:1128 0.219400
1128 VSS VSS:1129 0.197700
1129 VSS VSS:1130 0.181500
1130 VSS VSS:1131 0.184900
1131 VSS VSS:1132 0.205700
1132 VSS VSS:1133 0.231300
1133 VSS VSS:1134 0.194200
1134 VSS VSS:1135 0.240700
1135 VSS VSS:1136 0.151100
1136 VSS VSS:1137 0.164000
1137 VSS VSS:1138 0.224700
1138 VSS VSS:1139 0.214700
1139 VSS VSS:1140 0.172600
1140 VSS VSS:1141 0.132600
1141 VSS VSS:1142 0.124400
1142 VSS VSS:1143 0.242900
1143 VSS VSS:1144 0.207600
1144 VSS VSS:1145 0.100600
1145 VSS VSS:1146 0.105000
1146 VSS VSS:1147 0.171100
1147 VSS VSS:1148 0.239400
1148 VSS VSS:1149 0.203600
1149 VSS VSS:1150 0.174900
1150 VSS VSS:1151 0.037200
1151 VSS VSS:1152 0.205700
1152 VSS VSS:1153 0.144100
1153 VSS VSS:1154 0.035000
1154 VSS VSS:1155 0.154500
1155 VSS VSS:1156 0.072300
1156 VSS VSS:1157 0.220600
1157 VSS VSS:1158 0.099400
1158 VSS VSS:1159 0.087300
1159 VSS VSS:1160 0.127400
1160 VSS VSS:1161 0.113300
1161 VSS VSS:1162 0.126900
1162 VSS VSS:1163 0.151800
1163 VSS VSS:1164 0.261100
1164 VSS VSS:1165 0.221600
1165 VSS VSS:1166 0.209700
1166 VSS VSS:1167 0.199400
1167 VSS VSS:1168 0.176300
1168 VSS VSS:1169 0.287900
1169 VSS VSS:1170 0.232700
1170 VSS VSS:1171 0.212300
1171 VSS VSS:1172 0.197000
1172 VSS VSS:1173 0.266200
1173 VSS VSS:1174 0.261600
1174 VSS VSS:1175 0.245400
1175 VSS VSS:1176 0.212200
1176 VSS VSS:1177 0.187500
1177 VSS VSS:1178 0.239500
1178 VSS VSS:1179 0.164600
1179 VSS VSS:1180 0.144600
1180 VSS VSS:1181 0.259800
1181 VSS VSS:1182 0.255700
1182 VSS VSS:1183 0.243700
1183 VSS VSS:1184 0.239800
1184 VSS VSS:1185 0.210700
1185 VSS VSS:1186 0.207300
1186 VSS VSS:1187 0.186200
1187 VSS VSS:1188 0.183400
1188 VSS VSS:1189 0.152100
1189 VSS VSS:1190 0.151600
1190 VSS VSS:1191 0.237600
1191 VSS VSS:1192 0.233400
1192 VSS VSS:1193 0.163200
1193 VSS VSS:1194 0.160100
1194 VSS VSS:1195 0.143600
1195 VSS VSS:1196 0.141400
1196 VSS VSS:1197 0.220900
1197 VSS VSS:1198 0.216700
1198 VSS VSS:1199 0.186400
1199 VSS VSS:1200 0.182600
1200 VSS VSS:1201 0.125900
1201 VSS VSS:1202 0.125300
1202 VSS VSS:1203 0.115900
1203 VSS VSS:1204 0.113200
1204 VSS VSS:1205 0.100200
1205 VSS VSS:1206 0.099300
1206 VSS VSS:1207 0.088300
1207 VSS VSS:1208 0.085400
1208 VSS VSS:1209 0.073800
1209 VSS VSS:1210 0.072900
1210 VSS VSS:1211 0.257500
1211 VSS VSS:1212 0.241500
1212 VSS VSS:1213 0.208700
1213 VSS VSS:1214 0.184600
1214 VSS VSS:1215 0.151800
1215 VSS VSS:1216 0.235200
1216 VSS VSS:1217 0.161400
1217 VSS VSS:1218 0.142400
1218 VSS VSS:1219 0.218500
1219 VSS VSS:1220 0.184200
1220 VSS VSS:1221 0.125500
1221 VSS VSS:1222 0.114300
1222 VSS VSS:1223 0.099700
1223 VSS VSS:1224 0.086600
1224 VSS VSS:1225 0.073300
1225 VSS VSS:1226 0.253400
1226 VSS VSS:1227 0.237600
1227 VSS VSS:1228 0.205400
1228 VSS VSS:1229 0.181900
1229 VSS VSS:1230 0.151300
1230 VSS VSS:1231 0.230900
1231 VSS VSS:1232 0.158400
1232 VSS VSS:1233 0.140200
1233 VSS VSS:1234 0.214300
1234 VSS VSS:1235 0.180500
1235 VSS VSS:1236 0.125000
1236 VSS VSS:1237 0.243800
1237 VSS VSS:1238 0.260500
1238 VSS VSS:1239 0.111800
1239 VSS VSS:1240 0.099000
1240 VSS VSS:1241 0.141400
1241 VSS VSS:1242 0.083900
1242 VSS VSS:1243 0.072500
1243 VSS VSS:1244 0.223800
1244 VSS VSS:1245 0.204900
1245 VSS VSS:1246 0.137700
1246 VSS VSS:1247 0.169000
1247 VSS VSS:1248 0.264700
1248 VSS VSS:1249 0.248500
1249 VSS VSS:1250 0.215000
1250 VSS VSS:1251 0.190000
1251 VSS VSS:1252 0.242700
1252 VSS VSS:1253 0.167200
1253 VSS VSS:1254 0.146800
1254 VSS VSS:1255 0.171100
1255 VSS VSS:1256 0.237300
1256 VSS VSS:1257 0.250000
1257 VSS VSS:1258 0.255100
1258 VSS VSS:1259 0.211000
1259 VSS VSS:1260 0.236800
1260 VSS VSS:1261 0.190700
1261 VSS VSS:1262 0.174500
1262 VSS VSS:1263 0.229600
1263 VSS VSS:1264 0.190300
1264 VSS VSS:1265 0.039800
1265 VSS VSS:1266 0.206300
1266 VSS VSS:1267 0.107700
1267 VSS VSS:1268 0.027000
1268 VSS VSS:1269 0.180000
1269 VSS VSS:1270 0.210000
1270 VSS VSS:1271 0.080400
1271 VSS VSS:1272 0.054000
1272 VSS VSS:1273 0.049500
1273 VSS VSS:1274 0.196200
1274 VSS VSS:1275 0.054600
1275 VSS VSS:1276 0.121200
1276 VSS VSS:1277 0.164300
1277 VSS VSS:1278 0.140700
1278 VSS VSS:1279 0.167800
1279 VSS VSS:1280 0.226500
1280 VSS VSS:1281 0.195400
1281 VSS VSS:1282 0.243600
1282 VSS VSS:1283 0.168600
1283 VSS VSS:1284 0.166500
1284 VSS VSS:1285 0.157500
1285 VSS VSS:1286 0.266300
1286 VSS VSS:1287 0.131100
1287 VSS VSS:1288 0.135400
1288 VSS VSS:1289 0.211800
1289 VSS VSS:1290 0.122500
1290 VSS VSS:1291 0.105700
1291 VSS VSS:1292 0.195700
1292 VSS VSS:1293 0.240500
1293 VSS VSS:1294 0.105000
1294 VSS VSS:1295 0.077700
1295 VSS VSS:1296 0.089500
1296 VSS VSS:1297 0.177800
1297 VSS VSS:1298 0.126800
1298 VSS VSS:1299 0.075000
1299 VSS VSS:1300 0.052800
1300 VSS VSS:1301 0.067100
1301 VSS VSS:1302 0.028600
1302 VSS VSS:1303 0.096100
1303 VSS VSS:1304 0.009700
1304 VSS VSS:1305 0.105000
1305 VSS VSS:1306 0.118000
1306 VSS VSS:1307 0.221600
1307 VSS VSS:1308 0.100900
1308 VSS VSS:1309 0.063700
1309 VSS VSS:1310 0.063900
1310 VSS VSS:1311 0.093700
1311 VSS VSS:1312 0.140100
1312 VSS VSS:1313 0.219300
1313 VSS VSS:1314 0.102300
1314 VSS VSS:1315 0.213500
1315 VSS VSS:1316 0.242700
1316 VSS VSS:1317 0.112700
1317 VSS VSS:1318 0.186100
1318 VSS VSS:1319 0.168000
1319 VSS VSS:1320 0.158900
1320 VSS VSS:1321 0.185300
1321 VSS VSS:1322 0.157100
1322 VSS VSS:1323 0.269500
1323 VSS VSS:1324 0.130700
1324 VSS VSS:1325 0.136600
1325 VSS VSS:1326 0.208400
1326 VSS VSS:1327 0.120500
1327 VSS VSS:1328 0.105100
1328 VSS VSS:1329 0.199000
1329 VSS VSS:1330 0.244100
1330 VSS VSS:1331 0.102400
1331 VSS VSS:1332 0.077600
1332 VSS VSS:1333 0.091600
1333 VSS VSS:1334 0.181400
1334 VSS VSS:1335 0.123300
1335 VSS VSS:1336 0.072200
1336 VSS VSS:1337 0.052000
1337 VSS VSS:1338 0.069700
1338 VSS VSS:1339 0.026900
1339 VSS VSS:1340 0.099900
1340 VSS VSS:1341 0.013600
1341 VSS VSS:1342 0.101300
1342 VSS VSS:1343 0.121800
1343 VSS VSS:1344 0.225500
1344 VSS VSS:1345 0.097600
1345 VSS VSS:1346 0.061700
1346 VSS VSS:1347 0.066000
1347 VSS VSS:1348 0.097000
1348 VSS VSS:1349 0.143700
1349 VSS VSS:1350 0.223000
1350 VSS VSS:1351 0.104700
1351 VSS VSS:1352 0.217200
1352 VSS VSS:1353 0.239200
1353 VSS VSS:1354 0.114100
1354 VSS VSS:1355 0.183400
1355 VSS VSS:1356 0.170400
1356 VSS VSS:1357 0.158900
1357 VSS VSS:1358 0.185200
1358 VSS VSS:1359 0.156600
1359 VSS VSS:1360 0.276000
1360 VSS VSS:1361 0.130200
1361 VSS VSS:1362 0.139200
1362 VSS VSS:1363 0.201500
1363 VSS VSS:1364 0.116600
1364 VSS VSS:1365 0.104200
1365 VSS VSS:1366 0.205900
1366 VSS VSS:1367 0.251400
1367 VSS VSS:1368 0.097400
1368 VSS VSS:1369 0.078100
1369 VSS VSS:1370 0.096100
1370 VSS VSS:1371 0.188600
1371 VSS VSS:1372 0.116000
1372 VSS VSS:1373 0.066800
1373 VSS VSS:1374 0.051300
1374 VSS VSS:1375 0.075300
1375 VSS VSS:1376 0.025100
1376 VSS VSS:1377 0.107700
1377 VSS VSS:1378 0.021600
1378 VSS VSS:1379 0.093600
1379 VSS VSS:1380 0.129600
1380 VSS VSS:1381 0.233400
1381 VSS VSS:1382 0.091000
1382 VSS VSS:1383 0.058200
1383 VSS VSS:1384 0.071000
1384 VSS VSS:1385 0.103700
1385 VSS VSS:1386 0.151200
1386 VSS VSS:1387 0.230800
1387 VSS VSS:1388 0.110100
1388 VSS VSS:1389 0.224600
1389 VSS VSS:1390 0.232100
1390 VSS VSS:1391 0.117200
1391 VSS VSS:1392 0.177900
1392 VSS VSS:1393 0.175500
1393 VSS VSS:1394 0.159300
1394 VSS VSS:1395 0.185300
1395 VSS VSS:1396 0.156300
1396 VSS VSS:1397 0.278800
1397 VSS VSS:1398 0.130000
1398 VSS VSS:1399 0.140300
1399 VSS VSS:1400 0.198400
1400 VSS VSS:1401 0.114900
1401 VSS VSS:1402 0.103800
1402 VSS VSS:1403 0.208800
1403 VSS VSS:1404 0.254500
1404 VSS VSS:1405 0.095100
1405 VSS VSS:1406 0.078300
1406 VSS VSS:1407 0.098000
1407 VSS VSS:1408 0.191700
1408 VSS VSS:1409 0.112800
1409 VSS VSS:1410 0.064400
1410 VSS VSS:1411 0.051200
1411 VSS VSS:1412 0.077800
1412 VSS VSS:1413 0.024900
1413 VSS VSS:1414 0.111100
1414 VSS VSS:1415 0.025100
1415 VSS VSS:1416 0.090300
1416 VSS VSS:1417 0.133100
1417 VSS VSS:1418 0.236900
1418 VSS VSS:1419 0.088300
1419 VSS VSS:1420 0.057200
1420 VSS VSS:1421 0.073500
1421 VSS VSS:1422 0.106900
1422 VSS VSS:1423 0.154500
1423 VSS VSS:1424 0.234300
1424 VSS VSS:1425 0.112700
1425 VSS VSS:1426 0.228000
1426 VSS VSS:1427 0.229100
1427 VSS VSS:1428 0.118900
1428 VSS VSS:1429 0.175800
1429 VSS VSS:1430 0.178000
1430 VSS VSS:1431 0.159800
1431 VSS VSS:1432 0.185600
1432 VSS VSS:1433 0.152400
1433 VSS VSS:1434 0.222700
1434 VSS VSS:1435 0.188000
1435 VSS VSS:1436 0.126200
1436 VSS VSS:1437 0.117000
1437 VSS VSS:1438 0.100600
1438 VSS VSS:1439 0.089600
1439 VSS VSS:1440 0.074300
1440 VSS VSS:1441 0.152300
1441 VSS VSS:1442 0.225200
1442 VSS VSS:1443 0.190100
1443 VSS VSS:1444 0.126100
1444 VSS VSS:1445 0.118300
1445 VSS VSS:1446 0.100700
1446 VSS VSS:1447 0.091100
1447 VSS VSS:1448 0.074600
1448 VSS VSS:1449 0.153300
1449 VSS VSS:1450 0.171000
1450 VSS VSS:1451 0.104800
1451 VSS VSS:1452 0.080800
1452 VSS VSS:1453 0.093800
1453 VSS VSS:1454 0.176700
1454 VSS VSS:1455 0.113100
1455 VSS VSS:1456 0.209700
1456 VSS VSS:1457 0.192800
1457 VSS VSS:1458 0.243700
1458 VSS VSS:1459 0.153500
1459 VSS VSS:1460 0.172200
1460 VSS VSS:1461 0.105600
1461 VSS VSS:1462 0.082000
1462 VSS VSS:1463 0.097000
1463 VSS VSS:1464 0.180100
1464 VSS VSS:1465 0.116500
1465 VSS VSS:1466 0.213000
1466 VSS VSS:1467 0.193000
1467 VSS VSS:1468 0.242700
1468 VSS VSS:1469 0.160300
1469 VSS VSS:1470 0.178400
1470 VSS VSS:1471 0.164700
1471 VSS VSS:1472 0.131200
1472 VSS VSS:1473 0.226400
1473 VSS VSS:1474 0.185800
1474 VSS VSS:1475 0.090500
1475 VSS VSS:1476 0.057100
1476 VSS VSS:1477 0.145200
1477 VSS VSS:1478 0.199100
1478 VSS VSS:1479 0.189100
1479 VSS VSS:1480 0.159100
1480 VSS VSS:1481 0.176300
1481 VSS VSS:1482 0.167000
1482 VSS VSS:1483 0.128700
1483 VSS VSS:1484 0.229400
1484 VSS VSS:1485 0.188700
1485 VSS VSS:1486 0.087400
1486 VSS VSS:1487 0.053800
1487 VSS VSS:1488 0.147000
1488 VSS VSS:1489 0.201600
1489 VSS VSS:1490 0.190300
1490 VSS VSS:1491 0.205600
1491 VSS VSS:1492 0.168600
1492 VSS VSS:1493 0.185500
1493 VSS VSS:1494 0.128000
1494 VSS VSS:1495 0.111600
1495 VSS VSS:1496 0.153400
1496 VSS VSS:1497 0.192500
1497 VSS VSS:1498 0.208400
1498 VSS VSS:1499 0.195500
1499 VSS VSS:1500 0.207500
1500 VSS VSS:1501 0.170400
1501 VSS VSS:1502 0.187600
1502 VSS VSS:1503 0.130400
1503 VSS VSS:1504 0.114500
1504 VSS VSS:1505 0.156500
1505 VSS VSS:1506 0.195800
1506 VSS VSS:1507 0.205000
1507 VSS VSS:1508 0.195000
1508 VSS VSS:1509 0.199600
1509 VSS VSS:1510 0.175500
1510 VSS VSS:1511 0.253400
1511 VSS VSS:1512 0.234500
1512 VSS VSS:1513 0.145200
1513 VSS VSS:1514 0.166500
1514 VSS VSS:1515 0.107700
1515 VSS VSS:1516 0.098100
1516 VSS VSS:1517 0.079500
1517 VSS VSS:1518 0.049800
1518 VSS VSS:1519 0.081400
1519 VSS VSS:1520 0.117200
1520 VSS VSS:1521 0.146400
1521 VSS VSS:1522 0.167600
1522 VSS VSS:1523 0.083200
1523 VSS VSS:1524 0.093800
1524 VSS VSS:1525 0.063300
1525 VSS VSS:1526 0.196900
1526 VSS VSS:1527 0.219800
1527 VSS VSS:1528 0.198300
1528 VSS VSS:1529 0.095800
1529 VSS VSS:1530 0.107200
1530 VSS VSS:1531 0.158800
1531 VSS VSS:1532 0.133800
1532 VSS VSS:1533 0.137800
1533 VSS VSS:1534 0.264200
1534 VSS VSS:1535 0.228600
1535 VSS VSS:1536 0.240100
1536 VSS VSS:1537 0.197800
1537 VSS VSS:1538 0.173900
1538 VSS VSS:1539 0.077300
1539 VSS VSS:1540 0.079000
1540 VSS VSS:1541 0.194600
1541 VSS VSS:1542 0.107000
1542 VSS VSS:1543 0.157500
1543 VSS VSS:1544 0.133500
1544 VSS VSS:1545 0.138400
1545 VSS VSS:1546 0.194600
1546 VSS VSS:1547 0.171000
1547 VSS VSS:1548 0.073700
1548 VSS VSS:1549 0.075500
1549 VSS VSS:1550 0.191500
1550 VSS VSS:1551 0.107500
1551 VSS VSS:1552 0.156400
1552 VSS VSS:1553 0.134100
1553 VSS VSS:1554 0.140300
1554 VSS VSS:1555 0.138300
1555 VSS VSS:1556 0.236400
1556 VSS VSS:1557 0.196400
1557 VSS VSS:1558 0.168800
1558 VSS VSS:1559 0.088100
1559 VSS VSS:1560 0.137300
1560 VSS VSS:1561 0.199700
1561 VSS VSS:1562 0.127600
1562 VSS VSS:1563 0.078200
1563 VSS VSS:1564 0.093300
1564 VSS VSS:1565 0.068200
1565 VSS VSS:1566 0.133800
1566 VSS VSS:1567 0.035300
1567 VSS VSS:1568 0.060900
1568 VSS VSS:1569 0.044300
1569 VSS VSS:1570 0.168300
1570 VSS VSS:1571 0.013500
1571 VSS VSS:1572 0.050600
1572 VSS VSS:1573 0.102900
1573 VSS VSS:1574 0.120400
1574 VSS VSS:1575 0.028900
1575 VSS VSS:1576 0.035300
1576 VSS VSS:1577 0.061400
1577 VSS VSS:1578 0.167800
1578 VSS VSS:1579 0.190900
1579 VSS VSS:1580 0.131000
1580 VSS VSS:1581 0.075500
1581 VSS VSS:1582 0.155600
1582 VSS VSS:1583 0.139300
1583 VSS VSS:1584 0.192400
1584 VSS VSS:1585 0.203900
1585 VSS VSS:1586 0.060200
1586 VSS VSS:1587 0.081000
1587 VSS VSS:1588 0.178700
1588 VSS VSS:1589 0.143700
1589 VSS VSS:1590 0.153200
1590 VSS VSS:1591 0.123400
1591 VSS VSS:1592 0.141600
1592 VSS VSS:1593 0.160000
1593 VSS VSS:1594 0.193500
1594 VSS VSS:1595 0.214600
1595 VSS VSS:1596 0.203700
1596 VSS VSS:1597 0.277700
1597 VSS VSS:1598 0.137300
1598 VSS VSS:1599 0.136300
1599 VSS VSS:1600 0.233700
1600 VSS VSS:1601 0.193900
1601 VSS VSS:1602 0.171200
1602 VSS VSS:1603 0.173600
1603 VSS VSS:1604 0.206700
1604 VSS VSS:1605 0.203900
1605 VSS VSS:1606 0.201200
1606 VSS VSS:1607 0.089800
1607 VSS VSS:1608 0.091600
1608 VSS VSS:1609 0.093500
1609 VSS VSS:1610 0.095400
1610 VSS VSS:1611 0.139800
1611 VSS VSS:1612 0.196900
1612 VSS VSS:1613 0.194100
1613 VSS VSS:1614 0.191200
1614 VSS VSS:1615 0.188400
1615 VSS VSS:1616 0.185600
1616 VSS VSS:1617 0.182800
1617 VSS VSS:1618 0.180000
1618 VSS VSS:1619 0.177200
1619 VSS VSS:1620 0.174400
1620 VSS VSS:1621 0.171600
1621 VSS VSS:1622 0.162000
1622 VSS VSS:1623 0.159200
1623 VSS VSS:1624 0.156400
1624 VSS VSS:1625 0.153700
1625 VSS VSS:1626 0.150900
1626 VSS VSS:1627 0.148200
1627 VSS VSS:1628 0.130300
1628 VSS VSS:1629 0.133000
1629 VSS VSS:1630 0.135700
1630 VSS VSS:1631 0.138400
1631 VSS VSS:1632 0.075800
1632 VSS VSS:1633 0.073500
1633 VSS VSS:1634 0.071200
1634 VSS VSS:1635 0.069000
1635 VSS VSS:1636 0.065500
1636 VSS VSS:1637 0.062800
1637 VSS VSS:1638 0.130900
1638 VSS VSS:1639 0.128000
1639 VSS VSS:1640 0.125100
1640 VSS VSS:1641 0.122200
1641 VSS VSS:1642 0.042100
1642 VSS VSS:1643 0.020500
1643 VSS VSS:1644 0.021900
1644 VSS VSS:1645 0.023500
1645 VSS VSS:1646 0.047200
1646 VSS VSS:1647 0.171300
1647 VSS VSS:1648 0.217400
1648 VSS VSS:1649 0.220300
1649 VSS VSS:1650 0.223200
1650 VSS VSS:1651 0.158900
1651 VSS VSS:1652 0.011200
1652 VSS VSS:1653 0.009200
1653 VSS VSS:1654 0.007800
1654 VSS VSS:1655 0.007400
1655 VSS VSS:1656 0.053500
1656 VSS VSS:1657 0.056400
1657 VSS VSS:1658 0.105800
1658 VSS VSS:1659 0.123300
1659 VSS VSS:1660 0.126200
1660 VSS VSS:1661 0.129100
1661 VSS VSS:1662 0.132000
1662 VSS VSS:1663 0.135000
1663 VSS VSS:1664 0.137900
1664 VSS VSS:1665 0.140800
1665 VSS VSS:1666 0.143700
1666 VSS VSS:1667 0.146600
1667 VSS VSS:1668 0.149500
1668 VSS VSS:1669 0.029500
1669 VSS VSS:1670 0.037100
1670 VSS VSS:1671 0.064000
1671 VSS VSS:1672 0.170700
1672 VSS VSS:1673 0.193800
1673 VSS VSS:1674 0.196700
1674 VSS VSS:1675 0.128200
1675 VSS VSS:1676 0.125400
1676 VSS VSS:1677 0.122600
1677 VSS VSS:1678 0.119800
1678 VSS VSS:1679 0.078100
1679 VSS VSS:1680 0.152800
1680 VSS VSS:1681 0.150100
1681 VSS VSS:1682 0.136600
1682 VSS VSS:1683 0.195200
1683 VSS VSS:1684 0.211300
1684 VSS VSS:1685 0.083000
1685 VSS VSS:1686 0.085000
1686 VSS VSS:1687 0.087100
1687 VSS VSS:1688 0.089300
1688 VSS VSS:1689 0.123100
1689 VSS VSS:1690 0.125600
1690 VSS VSS:1691 0.181500
1691 VSS VSS:1692 0.187200
1692 VSS VSS:1693 0.184600
1693 VSS VSS:1694 0.116200
1694 VSS VSS:1695 0.146100
1695 VSS VSS:1696 0.148600
1696 VSS VSS:1697 0.150800
1697 VSS VSS:1698 0.158200
1698 VSS VSS:1699 0.156100
1699 VSS VSS:1700 0.122000
1700 VSS VSS:1701 0.120600
1701 VSS VSS:1702 0.119300
1702 VSS VSS:1703 0.118100
1703 VSS VSS:1704 0.143500
1704 VSS VSS:1705 0.162200
1705 VSS VSS:1706 0.164400
1706 VSS VSS:1707 0.166600
1707 VSS VSS:1708 0.168900
1708 VSS VSS:1709 0.196000
1709 VSS VSS:1710 0.198400
1710 VSS VSS:1711 0.217100
1711 VSS VSS:1712 0.219700
1712 VSS VSS:1713 0.213400
1713 VSS VSS:1714 0.205900
1714 VSS VSS:1715 0.208100
1715 VSS VSS:1716 0.181700
1716 VSS VSS:1717 0.180300
1717 VSS VSS:1718 0.179000
1718 VSS VSS:1719 0.271500
1719 VSS VSS:1720 0.239700
1720 VSS VSS:1721 0.224300
1721 VSS VSS:1722 0.135400
1722 VSS VSS:1723 0.231100
1723 VSS VSS:1724 0.191400
1724 VSS VSS:1725 0.176000
1725 VSS VSS:1726 0.198500
1726 VSS VSS:1727 0.097300
1727 VSS VSS:1728 0.142300
1728 VSS VSS:1729 0.145400
1729 VSS VSS:1730 0.141100
1730 VSS VSS:1731 0.066800
1731 VSS VSS:1732 0.060100
1732 VSS VSS:1733 0.119400
1733 VSS VSS:1734 0.039500
1734 VSS VSS:1735 0.032900
1735 VSS VSS:1736 0.025300
1736 VSS VSS:1737 0.050100
1737 VSS VSS:1738 0.174200
1738 VSS VSS:1739 0.226200
1739 VSS VSS:1740 0.155900
1740 VSS VSS:1741 0.008100
1741 VSS VSS:1742 0.108700
1742 VSS VSS:1743 0.152500
1743 VSS VSS:1744 0.030400
1744 VSS VSS:1745 0.039000
1745 VSS VSS:1746 0.076600
1746 VSS VSS:1747 0.173600
1747 VSS VSS:1748 0.199600
1748 VSS VSS:1749 0.117000
1749 VSS VSS:1750 0.080800
1750 VSS VSS:1751 0.147400
1751 VSS VSS:1752 0.133900
1752 VSS VSS:1753 0.198000
1753 VSS VSS:1754 0.208500
1754 VSS VSS:1755 0.201100
1755 VSS VSS:1756 0.091500
1756 VSS VSS:1757 0.128200
1757 VSS VSS:1758 0.184200
1758 VSS VSS:1759 0.182000
1759 VSS VSS:1760 0.114100
1760 VSS VSS:1761 0.151000
1761 VSS VSS:1762 0.148400
1762 VSS VSS:1763 0.154000
1763 VSS VSS:1764 0.116900
1764 VSS VSS:1765 0.145500
1765 VSS VSS:1766 0.171100
1766 VSS VSS:1767 0.222200
1767 VSS VSS:1768 0.210900
1768 VSS VSS:1769 0.210400
1769 VSS VSS:1770 0.177700
1770 VSS VSS:1771 0.273800
1771 VSS VSS:1772 0.280100
1772 VSS VSS:1773 0.237600
1773 VSS VSS:1774 0.222700
1774 VSS VSS:1775 0.251300
1775 VSS VSS:1776 0.232500
1776 VSS VSS:1777 0.143900
1777 VSS VSS:1778 0.105900
1778 VSS VSS:1779 0.096500
1779 VSS VSS:1780 0.080800
1780 VSS VSS:1781 0.091600
1781 VSS VSS:1782 0.096800
1782 VSS VSS:1783 0.248700
1783 VSS VSS:1784 0.230000
1784 VSS VSS:1785 0.142900
1785 VSS VSS:1786 0.103900
1786 VSS VSS:1787 0.094800
1787 VSS VSS:1788 0.077300
1788 VSS VSS:1789 0.088000
1789 VSS VSS:1790 0.097600
1790 VSS VSS:1791 0.226900
1791 VSS VSS:1792 0.241200
1792 VSS VSS:1793 0.247700
1793 VSS VSS:1794 0.148900
1794 VSS VSS:1795 0.209600
1795 VSS VSS:1796 0.202000
1796 VSS VSS:1797 0.185600
1797 VSS VSS:1798 0.117800
1798 VSS VSS:1799 0.056100
1799 VSS VSS:1800 0.041300
1800 VSS VSS:1801 0.168800
1801 VSS VSS:1802 0.174200
1802 VSS VSS:1803 0.156300
1803 VSS VSS:1804 0.229400
1804 VSS VSS:1805 0.231800
1805 VSS VSS:1806 0.250200
1806 VSS VSS:1807 0.252800
1807 VSS VSS:1808 0.255300
1808 VSS VSS:1809 0.257900
1809 VSS VSS:1810 0.146400
1810 VSS VSS:1811 0.143900
1811 VSS VSS:1812 0.212400
1812 VSS VSS:1813 0.215300
1813 VSS VSS:1814 0.218100
1814 VSS VSS:1815 0.221000
1815 VSS VSS:1816 0.188400
1816 VSS VSS:1817 0.191200
1817 VSS VSS:1818 0.120500
1818 VSS VSS:1819 0.132300
1819 VSS VSS:1820 0.135000
1820 VSS VSS:1821 0.166300
1821 VSS VSS:1822 0.155400
1822 VSS VSS:1823 0.172400
1823 VSS VSS:1824 0.170700
1824 VSS VSS:1825 0.154900
1825 VSS VSS:1826 0.149600
1826 VSS VSS:1827 0.234300
1827 VSS VSS:1828 0.237000
1828 VSS VSS:1829 0.114500
1829 VSS VSS:1830 0.189400
1830 VSS VSS:1831 0.101400
1831 VSS VSS:1832 0.143600
1832 VSS VSS:1833 0.115800
1833 VSS VSS:1834 0.117100
1834 VSS VSS:1835 0.118500
1835 VSS VSS:1836 0.120000
1836 VSS VSS:1837 0.121500
1837 VSS VSS:1838 0.123000
1838 VSS VSS:1839 0.099700
1839 VSS VSS:1840 0.144700
1840 VSS VSS:1841 0.145900
1841 VSS VSS:1842 0.147100
1842 VSS VSS:1843 0.148400
1843 VSS VSS:1844 0.149700
1844 VSS VSS:1845 0.151100
1845 VSS VSS:1846 0.124600
1846 VSS VSS:1847 0.186500
1847 VSS VSS:1848 0.098000
1848 VSS VSS:1849 0.152500
1849 VSS VSS:1850 0.214300
1850 VSS VSS:1851 0.018900
1851 VSS VSS:1852 0.211500
1852 VSS VSS:1853 0.019100
1853 VSS VSS:1854 0.209400
1854 VSS VSS:1855 0.019600
1855 VSS VSS:1856 0.164500
1856 VSS VSS:1857 0.119600
1857 VSS VSS:1858 0.148800
1858 VSS VSS:1859 0.065300
1859 VSS VSS:1860 0.200600
1860 VSS VSS:1861 0.239000
1861 VSS VSS:1862 0.162400
1862 VSS VSS:1863 0.067600
1863 VSS VSS:1864 0.203200
1864 VSS VSS:1865 0.159800
1865 VSS VSS:1866 0.070400
1866 VSS VSS:1867 0.206500
1867 VSS VSS:1868 0.214600
1868 VSS VSS:1869 0.154800
1869 VSS VSS:1870 0.087700
1870 VSS VSS:1871 0.052500
1871 VSS VSS:1872 0.104300
1872 VSS VSS:1873 0.018700
1873 VSS VSS:1874 0.026900
1874 VSS VSS:1875 0.073500
1875 VSS VSS:1876 0.055700
1876 VSS VSS:1877 0.150200
1877 VSS VSS:1878 0.107800
1878 VSS VSS:1879 0.209500
1879 VSS VSS:1880 0.201500
1880 VSS VSS:1881 0.126500
1881 VSS VSS:1882 0.107200
1882 VSS VSS:1883 0.224600
1883 VSS VSS:1884 0.197100
1884 VSS VSS:1885 0.139800
1885 VSS VSS:1886 0.172600
1886 VSS VSS:1887 0.252600
1887 VSS VSS:1888 0.217400
1888 VSS VSS:1889 0.162500
1889 VSS VSS:1890 0.146200
1890 VSS VSS:1891 0.124500
1891 VSS VSS:1892 0.130000
1892 VSS VSS:1893 0.015800
1893 VSS VSS:1894 0.024100
1894 VSS VSS:1895 0.070900
1895 VSS VSS:1896 0.056300
1896 VSS VSS:1897 0.152900
1897 VSS VSS:1898 0.105800
1898 VSS VSS:1899 0.206800
1899 VSS VSS:1900 0.198900
1900 VSS VSS:1901 0.128600
1901 VSS VSS:1902 0.107300
1902 VSS VSS:1903 0.222300
1903 VSS VSS:1904 0.199200
1904 VSS VSS:1905 0.139500
1905 VSS VSS:1906 0.171500
1906 VSS VSS:1907 0.248000
1907 VSS VSS:1908 0.168800
1908 VSS VSS:1909 0.164700
1909 VSS VSS:1910 0.218300
1910 VSS VSS:1911 0.164600
1911 VSS VSS:1912 0.216100
1912 VSS VSS:1913 0.165800
1913 VSS VSS:1914 0.213700
1914 VSS VSS:1915 0.202600
1915 VSS VSS:1916 0.140500
1916 VSS VSS:1917 0.135200
1917 VSS VSS:1918 0.129900
1918 VSS VSS:1919 0.113900
1919 VSS VSS:1920 0.108600
1920 VSS VSS:1921 0.140300
1921 VSS VSS:1922 0.207100
1922 VSS VSS:1923 0.145500
1923 VSS VSS:1924 0.118300
1924 VSS VSS:1925 0.181100
1925 VSS VSS:1926 0.254300
1926 VSS VSS:1927 0.167100
1927 VSS VSS:1928 0.241900
1928 VSS VSS:1929 0.252900
1929 VSS VSS:1930 0.210900
1930 VSS VSS:1931 0.199700
1931 VSS VSS:1932 0.206800
1932 VSS VSS:1933 0.137600
1933 VSS VSS:1934 0.132200
1934 VSS VSS:1935 0.116300
1935 VSS VSS:1936 0.111000
1936 VSS VSS:1937 0.105700
1937 VSS VSS:1938 0.067700
1938 VSS VSS:1939 0.137400
1939 VSS VSS:1940 0.035400
1940 VSS VSS:1941 0.204300
1941 VSS VSS:1942 0.142800
1942 VSS VSS:1943 0.183500
1943 VSS VSS:1944 0.208100
1944 VSS VSS:1945 0.256800
1945 VSS VSS:1946 0.168800
1946 VSS VSS:1947 0.185400
1947 VSS VSS:1948 0.255100
1948 VSS VSS:1949 0.208600
1949 VSS VSS:1950 0.198500
1950 VSS VSS:1951 0.209200
1951 VSS VSS:1952 0.201400
1952 VSS VSS:1953 0.218100
1953 VSS VSS:1954 0.170200
1954 VSS VSS:1955 0.182200
1955 VSS VSS:1956 0.235400
1956 VSS VSS:1957 0.206000
1957 VSS VSS:1958 0.198700
1958 VSS VSS:1959 0.171700
1959 VSS VSS:1960 0.180500
1960 VSS VSS:1961 0.237500
1961 VSS VSS:1962 0.046100
1962 VSS VSS:1963 0.151500
1963 VSS VSS:1964 0.176200
1964 VSS VSS:1965 0.046800
1965 VSS VSS:1966 0.154000
1966 VSS VSS:1967 0.178000
1967 VSS VSS:1968 0.126400
1968 VSS VSS:1969 0.147300
1969 VSS VSS:1970 0.141700
1970 VSS VSS:1971 0.136200
1971 VSS VSS:1972 0.130900
1972 VSS VSS:1973 0.152100
1973 VSS VSS:1974 0.147300
1974 VSS VSS:1975 0.145100
1975 VSS VSS:1976 0.143100
1976 VSS VSS:1977 0.141500
1977 VSS VSS:1978 0.123200
1978 VSS VSS:1979 0.153600
1979 VSS VSS:1980 0.148500
1980 VSS VSS:1981 0.129500
1981 VSS VSS:1982 0.150800
1982 VSS VSS:1983 0.194000
1983 VSS VSS:1984 0.197400
1984 VSS VSS:1985 0.215400
1985 VSS VSS:1986 0.191800
1986 VSS VSS:1987 0.159600
1987 VSS VSS:1988 0.219500
1988 VSS VSS:1989 0.157300
1989 VSS VSS:1990 0.243500
1990 VSS VSS:1991 0.189400
1991 VSS VSS:1992 0.243400
1992 VSS VSS:1993 0.213200
1993 VSS VSS:1994 0.217400
1994 VSS VSS:1995 0.155300
1995 VSS VSS:1996 0.245300
1996 VSS VSS:1997 0.245000
1997 VSS VSS:1998 0.210200
1998 VSS VSS:1999 0.214400
1999 VSS VSS:2000 0.152500
2000 VSS VSS:2001 0.247900
2001 VSS VSS:2002 0.247200
2002 VSS VSS:2003 0.208000
2003 VSS VSS:2004 0.212300
2004 VSS VSS:2005 0.150400
2005 VSS VSS:2006 0.249700
2006 VSS VSS:2007 0.248900
2007 VSS VSS:2008 0.205000
2008 VSS VSS:2009 0.209400
2009 VSS VSS:2010 0.147700
2010 VSS VSS:2011 0.252300
2011 VSS VSS:2012 0.251100
2012 VSS VSS:2013 0.171200
2013 VSS VSS:2014 0.138700
2014 VSS VSS:2015 0.168300
2015 VSS VSS:2016 0.165400
2016 VSS VSS:2017 0.151900
2017 VSS VSS:2018 0.149000
2018 VSS VSS:2019 0.107200
2019 VSS VSS:2020 0.110100
2020 VSS VSS:2021 0.113000
2021 VSS VSS:2022 0.115800
2022 VSS VSS:2023 0.118700
2023 VSS VSS:2024 0.121600
2024 VSS VSS:2025 0.135800
2025 VSS VSS:2026 0.132900
2026 VSS VSS:2027 0.251100
2027 VSS VSS:2028 0.249500
2028 VSS VSS:2029 0.189600
2029 VSS VSS:2030 0.184600
2030 VSS VSS:2031 0.179500
2031 VSS VSS:2032 0.079300
2032 VSS VSS:2033 0.060300
2033 VSS VSS:2034 0.157500
2034 VSS VSS:2035 0.152300
2035 VSS VSS:2036 0.147200
2036 VSS VSS:2037 0.068700
2037 VSS VSS:2038 0.183100
2038 VSS VSS:2039 0.186700
2039 VSS VSS:2040 0.181700
2040 VSS VSS:2041 0.176600
2041 VSS VSS:2042 0.076500
2042 VSS VSS:2043 0.063100
2043 VSS VSS:2044 0.154500
2044 VSS VSS:2045 0.149400
2045 VSS VSS:2046 0.144300
2046 VSS VSS:2047 0.066700
2047 VSS VSS:2048 0.174400
2048 VSS VSS:2049 0.142100
2049 VSS VSS:2050 0.090500
2050 VSS VSS:2051 0.058000
2051 VSS VSS:2052 0.059300
2052 VSS VSS:2053 0.060500
2053 VSS VSS:2054 0.200900
2054 VSS VSS:2055 0.087600
2055 VSS VSS:2056 0.055000
2056 VSS VSS:2057 0.062300
2057 VSS VSS:2058 0.060900
2058 VSS VSS:2059 0.203400
2059 VSS VSS:2060 0.085100
2060 VSS VSS:2061 0.193400
2061 VSS VSS:2062 0.052500
2062 VSS VSS:2063 0.061400
2063 VSS VSS:2064 0.084900
2064 VSS VSS:2065 0.055200
2065 VSS VSS:2066 0.081500
2066 VSS VSS:2067 0.058200
2067 VSS VSS:2068 0.074400
2068 VSS VSS:2069 0.065200
2069 VSS VSS:2070 0.047600
2070 VSS VSS:2071 0.217500
2071 VSS VSS:2072 0.044700
2072 VSS VSS:2073 0.214100
2073 VSS VSS:2074 0.185800
2074 VSS VSS:2075 0.188300
2075 VSS VSS:2076 0.124400
2076 VSS VSS:2077 0.190900
2077 VSS VSS:2078 0.121800
2078 VSS VSS:2079 0.093000
2079 VSS VSS:2080 0.122300
2080 VSS VSS:2081 0.151500
2081 VSS VSS:2082 0.237700
2082 VSS VSS:2083 0.126100
2083 VSS VSS:2084 0.155300
2084 VSS VSS:2085 0.236800
2085 VSS VSS:2086 0.201200
2086 VSS VSS:2087 0.211800
2087 VSS VSS:2088 0.192300
2088 VSS VSS:2089 0.162300
2089 VSS VSS:2090 0.203800
2090 VSS VSS:2091 0.214500
2091 VSS VSS:2092 0.207600
2092 VSS VSS:2093 0.202500
2093 VSS VSS:2094 0.197400
2094 VSS VSS:2095 0.189900
2095 VSS VSS:2096 0.175300
2096 VSS VSS:2097 0.170900
2097 VSS VSS:2098 0.166600
2098 VSS VSS:2099 0.160400
2099 VSS VSS:2100 0.215900
2100 VSS VSS:2101 0.186900
2101 VSS VSS:2102 0.165200
2102 VSS VSS:2103 0.161800
2103 VSS VSS:2104 0.126900
2104 VSS VSS:2105 0.119200
2105 VSS VSS:2106 0.064800
2106 VSS VSS:2107 0.205600
2107 VSS VSS:2108 0.059000
2108 VSS VSS:2109 0.062600
2109 VSS VSS:2110 0.071300
2110 VSS VSS:2111 0.073900
2111 VSS VSS:2112 0.039200
2112 VSS VSS:2113 0.037200
2113 VSS VSS:2114 0.210000
2114 VSS VSS:2115 0.177400
2115 VSS VSS:2116 0.204900
2116 VSS VSS:2117 0.199800
2117 VSS VSS:2118 0.194700
2118 VSS VSS:2119 0.173000
2119 VSS VSS:2120 0.168600
2120 VSS VSS:2121 0.164400
2121 VSS VSS:2122 0.105100
2122 VSS VSS:2123 0.107500
2123 VSS VSS:2124 0.110000
2124 VSS VSS:2125 0.112400
2125 VSS VSS:2126 0.114900
2126 VSS VSS:2127 0.117400
2127 VSS VSS:2128 0.120500
2128 VSS VSS:2129 0.163800
2129 VSS VSS:2130 0.153000
2130 VSS VSS:2131 0.157900
2131 VSS VSS:2132 0.160800
2132 VSS VSS:2133 0.150100
2133 VSS VSS:2134 0.144500
2134 VSS VSS:2135 0.138900
2135 VSS VSS:2136 0.133500
2136 VSS VSS:2137 0.146100
2137 VSS VSS:2138 0.144100
2138 VSS VSS:2139 0.142300
2139 VSS VSS:2140 0.140800
2140 VSS VSS:2141 0.128200
2141 VSS VSS:2142 0.140100
2142 VSS VSS:2143 0.188300
2143 VSS VSS:2144 0.184200
2144 VSS VSS:2145 0.266100
2145 VSS VSS:2146 0.269100
2146 VSS VSS:2147 0.227200
2147 VSS VSS:2148 0.225900
2148 VSS VSS:2149 0.263900
2149 VSS VSS:2150 0.261500
2150 VSS VSS:2151 0.266300
2151 VSS VSS:2152 0.267800
2152 VSS VSS:2153 0.265200
2153 VSS VSS:2154 0.177300
2154 VSS VSS:2155 0.236200
2155 VSS VSS:2156 0.249800
2156 VSS VSS:2157 0.285800
2157 VSS VSS:2158 0.171100
2158 VSS VSS:2159 0.160300
2159 VSS VSS:2160 0.153500
2160 VSS VSS:2161 0.138300
2161 VSS VSS:2162 0.135400
2162 VSS VSS:2163 0.226900
2163 VSS VSS:2164 0.114500
2164 VSS VSS:2165 0.124600
2165 VSS VSS:2166 0.214600
2166 VSS VSS:2167 0.217400
2167 VSS VSS:2168 0.218300
2168 VSS VSS:2169 0.206000
2169 VSS VSS:2170 0.046100
2170 VSS VSS:2171 0.046800
2171 VSS VSS:2172 0.215400
2172 VSS VSS:2173 0.085100
2173 VSS VSS:2174 0.074400
2174 VSS VSS:2175 0.185800
2175 VSS VSS:2176 0.093000
2176 VSS VSS:2177 0.105100
2177 VSS VSS:2178 0.128200
2178 VSS VSS:2179 0.140100
2179 VSS VSS:2180 0.065200
2180 VSS VSS:2181 0.052500
2181 VSS VSS:2182 0.061400
2182 VSS VSS:2183 0.157300
2183 VSS VSS:2184 0.243400
2184 VSS VSS:2185 0.243500
2185 VSS VSS:2186 0.189400
2186 VSS VSS:2187 0.191800
2187 VSS VSS:2188 0.219500
2188 VSS VSS:2189 0.159600
2189 VSS VSS:2190 0.178000
2190 VSS VSS:2191 0.154000
2191 VSS VSS:2192 0.176200
2192 VSS VSS:2193 0.151500
2193 VSS VSS:2194 0.171700
2194 VSS VSS:2195 0.164600
2195 VSS VSS:2196 0.248000
2196 VSS VSS:2197 0.199200
2197 VSS VSS:2198 0.171500
2198 VSS VSS:2199 0.107300
2199 VSS VSS:2200 0.139500
2200 VSS VSS:2201 0.152900
2201 VSS VSS:2202 0.128600
2202 VSS VSS:2203 0.124500
2203 VSS VSS:2204 0.146200
2204 VSS VSS:2205 0.130000
2205 VSS VSS:2206 0.222300
2206 VSS VSS:2207 0.070900
2207 VSS VSS:2208 0.105800
2208 VSS VSS:2209 0.162500
2209 VSS VSS:2210 0.198900
2210 VSS VSS:2211 0.056300
2211 VSS VSS:2212 0.206800
2212 VSS VSS:2213 0.015800
2213 VSS VSS:2214 0.024100
2214 VSS VSS:2215 0.154800
2215 VSS VSS:2216 0.055700
2216 VSS VSS:2217 0.104300
2217 VSS VSS:2218 0.172600
2218 VSS VSS:2219 0.201500
2219 VSS VSS:2220 0.197100
2220 VSS VSS:2221 0.018700
2221 VSS VSS:2222 0.052500
2222 VSS VSS:2223 0.087700
2223 VSS VSS:2224 0.224600
2224 VSS VSS:2225 0.073500
2225 VSS VSS:2226 0.026900
2226 VSS VSS:2227 0.150200
2227 VSS VSS:2228 0.126500
2228 VSS VSS:2229 0.107800
2229 VSS VSS:2230 0.139800
2230 VSS VSS:2231 0.209500
2231 VSS VSS:2232 0.252600
2232 VSS VSS:2233 0.107200
2233 VSS VSS:2234 0.152500
2234 VSS VSS:2235 0.186500
2235 VSS VSS:2236 0.101400
2236 VSS VSS:2237 0.189400
2237 VSS VSS:2238 0.143600
2238 VSS VSS:2239 0.041300
2239 VSS VSS:2240 0.148900
2240 VSS VSS:2241 0.174200
2241 VSS VSS:2242 0.056100
2242 VSS VSS:2243 0.185600
2243 VSS VSS:2244 0.168800
2244 VSS VSS:2245 0.156300
2245 VSS VSS:2246 0.117800
2246 VSS VSS:2247 0.050100
2247 VSS VSS:2248 0.097300
2248 VSS VSS:2249 0.174200
2249 VSS VSS:2250 0.191400
2250 VSS VSS:2251 0.210900
2251 VSS VSS:2252 0.114100
2252 VSS VSS:2253 0.177700
2253 VSS VSS:2254 0.147400
2254 VSS VSS:2255 0.032900
2255 VSS VSS:2256 0.008100
2256 VSS VSS:2257 0.226200
2257 VSS VSS:2258 0.237600
2258 VSS VSS:2259 0.117000
2259 VSS VSS:2260 0.119400
2260 VSS VSS:2261 0.151000
2261 VSS VSS:2262 0.066800
2262 VSS VSS:2263 0.025300
2263 VSS VSS:2264 0.091500
2264 VSS VSS:2265 0.171100
2265 VSS VSS:2266 0.060100
2266 VSS VSS:2267 0.116900
2267 VSS VSS:2268 0.108700
2268 VSS VSS:2269 0.030400
2269 VSS VSS:2270 0.176000
2270 VSS VSS:2271 0.128200
2271 VSS VSS:2272 0.039000
2272 VSS VSS:2273 0.198000
2273 VSS VSS:2274 0.201100
2274 VSS VSS:2275 0.280100
2275 VSS VSS:2276 0.184200
2276 VSS VSS:2277 0.141100
2277 VSS VSS:2278 0.145500
2278 VSS VSS:2279 0.222200
2279 VSS VSS:2280 0.173600
2280 VSS VSS:2281 0.231100
2281 VSS VSS:2282 0.198500
2282 VSS VSS:2283 0.199600
2283 VSS VSS:2284 0.155600
2284 VSS VSS:2285 0.068200
2285 VSS VSS:2286 0.153200
2286 VSS VSS:2287 0.123400
2287 VSS VSS:2288 0.143700
2288 VSS VSS:2289 0.088100
2289 VSS VSS:2290 0.139300
2290 VSS VSS:2291 0.075500
2291 VSS VSS:2292 0.127600
2292 VSS VSS:2293 0.277700
2293 VSS VSS:2294 0.214600
2294 VSS VSS:2295 0.203900
2295 VSS VSS:2296 0.168800
2296 VSS VSS:2297 0.190900
2297 VSS VSS:2298 0.081000
2298 VSS VSS:2299 0.137300
2299 VSS VSS:2300 0.131000
2300 VSS VSS:2301 0.013500
2301 VSS VSS:2302 0.133800
2302 VSS VSS:2303 0.078200
2303 VSS VSS:2304 0.035300
2304 VSS VSS:2305 0.061400
2305 VSS VSS:2306 0.160000
2306 VSS VSS:2307 0.242700
2307 VSS VSS:2308 0.193000
2308 VSS VSS:2309 0.082000
2309 VSS VSS:2310 0.180100
2310 VSS VSS:2311 0.172200
2311 VSS VSS:2312 0.097000
2312 VSS VSS:2313 0.213000
2313 VSS VSS:2314 0.105600
2314 VSS VSS:2315 0.116500
2315 VSS VSS:2316 0.137700
2316 VSS VSS:2317 0.169000
2317 VSS VSS:2318 0.141400
2318 VSS VSS:2319 0.131200
2319 VSS VSS:2320 0.189100
2320 VSS VSS:2321 0.164700
2321 VSS VSS:2322 0.178400
2322 VSS VSS:2323 0.226400
2323 VSS VSS:2324 0.199100
2324 VSS VSS:2325 0.057100
2325 VSS VSS:2326 0.145200
2326 VSS VSS:2327 0.185800
2327 VSS VSS:2328 0.090500
2328 VSS VSS:2329 0.080400
2329 VSS VSS:2330 0.054000
2330 VSS VSS:2331 0.211000
2331 VSS VSS:2332 0.237300
2332 VSS VSS:2333 0.054600
2333 VSS VSS:2334 0.206300
2334 VSS VSS:2335 0.180000
2335 VSS VSS:2336 0.195400
2336 VSS VSS:2337 0.190700
2337 VSS VSS:2338 0.226500
2338 VSS VSS:2339 0.190300
2339 VSS VSS:2340 0.168600
2340 VSS VSS:2341 0.166500
2341 VSS VSS:2342 0.107700
2342 VSS VSS:2343 0.027000
2343 VSS VSS:2344 0.121200
2344 VSS VSS:2345 0.210000
2345 VSS VSS:2346 0.140700
2346 VSS VSS:2347 0.039800
2347 VSS VSS:2348 0.196200
2348 VSS VSS:2349 0.243600
2349 VSS VSS:2350 0.167800
2350 VSS VSS:2351 0.250000
2351 VSS VSS:2352 0.174500
2352 VSS VSS:2353 0.164300
2353 VSS VSS:2354 0.236800
2354 VSS VSS:2355 0.229600
2355 VSS VSS:2356 0.049500
2356 VSS VSS:2357 0.255100
2357 VSS VSS:2358 0.209300
2358 VSS VSS:2359 0.178900
2359 VSS VSS:2360 0.149800
2360 VSS VSS:2361 0.229800
2361 VSS VSS:2362 0.133400
2362 VSS VSS:2363 0.206800
2363 VSS VSS:2364 0.234000
2364 VSS VSS:2365 0.084800
2365 VSS VSS:2366 0.159100
2366 VSS VSS:2367 0.139400
2367 VSS VSS:2368 0.087800
2368 VSS VSS:2369 0.236200
2369 VSS VSS:2370 0.112300
2370 VSS VSS:2371 0.193500
2371 VSS VSS:2372 0.106400
2372 VSS VSS:2373 0.248900
2373 VSS VSS:2374 0.203500
2374 VSS VSS:2375 0.241800
2375 VSS VSS:2376 0.116000
2376 VSS VSS:2377 0.060200
2377 VSS VSS:2378 0.226200
2378 VSS VSS:2379 0.194700
2379 VSS VSS:2380 0.133600
2380 VSS VSS:2381 0.062600
2381 VSS VSS:2382 0.223100
2382 VSS VSS:2383 0.112100
2383 VSS VSS:2384 0.110900
2384 VSS VSS:2385 0.245400
2385 VSS VSS:2386 0.193400
2386 VSS VSS:2387 0.110100
2387 VSS VSS:2388 0.188200
2388 VSS VSS:2389 0.097900
2389 VSS VSS:2390 0.059600
2390 VSS VSS:2391 0.118600
2391 VSS VSS:2392 0.152200
2392 VSS VSS:2393 0.228100
2393 VSS VSS:2394 0.269700
2394 VSS VSS:2395 0.152300
2395 VSS VSS:2396 0.126500
2396 VSS VSS:2397 0.260400
2397 VSS VSS:2398 0.038500
2398 VSS VSS:2399 0.165100
2399 VSS VSS:2400 0.251100
2400 VSS VSS:2401 0.110500
2401 VSS VSS:2402 0.191300
2402 VSS VSS:2403 0.132100
2403 VSS VSS:2404 0.163600
2404 VSS VSS:2405 0.158500
2405 VSS VSS:2406 0.218200
2406 VSS VSS:2407 0.213100
2407 VSS VSS:2408 0.032700
2408 VSS VSS:2409 0.133500
2409 VSS VSS:2410 0.132500
2410 VSS VSS:2411 0.002600
2411 VSS VSS:2412 0.212200
2412 VSS VSS:2413 0.208800
2413 VSS VSS:2414 0.171300
2414 VSS VSS:2415 0.078400
2415 VSS VSS:2416 0.086100
2416 VSS VSS:2417 0.249300
2417 VSS VSS:2418 0.214300
2418 VSS VSS:2419 0.189500
2419 VSS VSS:2420 0.089100
2420 VSS VSS:2421 0.107100
2421 VSS VSS:2422 0.241000
2422 VSS VSS:2423 0.166400
2423 VSS VSS:2424 0.185700
2424 VSS VSS:2425 0.217100
2425 VSS VSS:2426 0.055000
2426 VSS VSS:2427 0.121400
2427 VSS VSS:2428 0.246400
2428 VSS VSS:2429 0.080500
2429 VSS VSS:2430 0.221200
2430 VSS VSS:2431 0.137900
2431 VSS VSS:2432 0.223100
2432 VSS VSS:2433 0.107300
2433 VSS VSS:2434 0.239800
2434 VSS VSS:2435 0.149200
2435 VSS VSS:2436 0.088600
2436 VSS VSS:2437 0.067900
2437 VSS VSS:2438 0.233500
2438 VSS VSS:2439 0.185400
2439 VSS VSS:2440 0.086900
2440 VSS VSS:2441 0.162900
2441 VSS VSS:2442 0.218000
2442 VSS VSS:2443 0.121200
2443 VSS VSS:2444 0.145500
2444 VSS VSS:2445 0.140300
2445 VSS VSS:2446 0.081700
2446 VSS VSS:2447 0.166700
2447 VSS VSS:2448 0.217100
2448 VSS VSS:2449 0.130100
2449 VSS VSS:2450 0.260900
2450 VSS VSS:2451 0.207500
2451 VSS VSS:2452 0.242200
2452 VSS VSS:2453 0.194100
2453 VSS VSS:2454 0.196300
2454 VSS VSS:2455 0.159100
2455 VSS VSS:2456 0.223700
2456 VSS VSS:2457 0.220000
2457 VSS VSS:2458 0.180900
2458 VSS VSS:2459 0.164800
2459 VSS VSS:2460 0.122400
2460 VSS VSS:2461 0.137700
2461 VSS VSS:2462 0.176300
2462 VSS VSS:2463 0.267900
2463 VSS VSS:2464 0.213400
2464 VSS VSS:2465 0.283600
2465 VSS VSS:2466 0.208600
2466 VSS VSS:2467 0.180400
2467 VSS VSS:2468 0.192000
2468 VSS VSS:2469 0.143900
2469 VSS VSS:2470 0.215700
2470 VSS VSS:2471 0.195300
2471 VSS VSS:2472 0.251800
2472 VSS VSS:2473 0.245000
2473 VSS VSS:2474 0.224400
2474 VSS VSS:2475 0.196200
2475 VSS VSS:2476 0.105200
2476 VSS VSS:2477 0.200600
2477 VSS VSS:2478 0.190300
2478 VSS VSS:2479 0.146500
2479 VSS VSS:2480 0.204300
2480 VSS VSS:2481 0.268300
2481 VSS VSS:2482 0.200900
2482 VSS VSS:2483 0.122200
2483 VSS VSS:2484 0.164000
2484 VSS VSS:2485 0.163000
2485 VSS VSS:2486 0.194500
2486 VSS VSS:2487 0.259900
2487 VSS VSS:2488 0.195900
2488 VSS VSS:2489 0.202000
2489 VSS VSS:2490 0.135100
2490 VSS VSS:2491 0.140700
2491 VSS VSS:2492 0.034000
2492 VSS VSS:2493 0.185400
2493 VSS VSS:2494 0.257000
2494 VSS VSS:2495 0.258900
2495 VSS VSS:2496 0.197300
2496 VSS VSS:2497 0.134500
2497 VSS VSS:2498 0.126800
2498 VSS VSS:2499 0.110800
2499 VSS VSS:2500 0.105300
2500 VSS VSS:2501 0.068500
2501 VSS VSS:2502 0.063200
2502 VSS VSS:2503 0.101200
2503 VSS VSS:2504 0.157200
2504 VSS VSS:2505 0.095200
2505 VSS VSS:2506 0.091500
2506 VSS VSS:2507 0.103900
2507 VSS VSS:2508 0.110500
2508 VSS VSS:2509 0.051600
2509 VSS VSS:2510 0.132700
2510 VSS VSS:2511 0.079700
2511 VSS VSS:2512 0.085500
2512 VSS VSS:2513 0.175700
2513 VSS VSS:2514 0.203800
2514 VSS VSS:2515 0.127300
2515 VSS VSS:2516 0.045700
2516 VSS VSS:2517 0.190800
2517 VSS VSS:2518 0.043400
2518 VSS VSS:2519 0.019000
2519 VSS VSS:2520 0.193100
2520 VSS VSS:2521 0.216600
2521 VSS VSS:2522 0.231700
2522 VSS VSS:2523 0.190900
2523 VSS VSS:2524 0.054800
2524 VSS VSS:2525 0.244800
2525 VSS VSS:2526 0.148100
2526 VSS VSS:2527 0.109200
2527 VSS VSS:2528 0.166900
2528 VSS VSS:2529 0.142600
2529 VSS VSS:2530 0.170400
2530 VSS VSS:2531 0.183800
2531 VSS VSS:2532 0.203000
2532 VSS VSS:2533 0.060000
2533 VSS VSS:2534 0.174300
2534 VSS VSS:2535 0.196100
2535 VSS VSS:2536 0.187300
2536 VSS VSS:2537 0.079900
2537 VSS VSS:2538 0.156400
2538 VSS VSS:2539 0.152900
2539 VSS VSS:2540 0.158600
2540 VSS VSS:2541 0.207600
2541 VSS VSS:2542 0.161300
2542 VSS VSS:2543 0.230100
2543 VSS VSS:2544 0.233400
2544 VSS VSS:2545 0.157900
2545 VSS VSS:2546 0.151200
2546 VSS VSS:2547 0.189400
2547 VSS VSS:2548 0.208600
2548 VSS VSS:2549 0.109600
2549 VSS VSS:2550 0.168900
2550 VSS VSS:2551 0.169900
2551 VSS VSS:2552 0.179200
2552 VSS VSS:2553 0.175200
2553 VSS VSS:2554 0.244900
2554 VSS VSS:2555 0.181800
2555 VSS VSS:2556 0.282400
2556 VSS VSS:2557 0.155500
2557 VSS VSS:2558 0.208900
2558 VSS VSS:2559 0.112600
2559 VSS VSS:2560 0.212600
2560 VSS VSS:2561 0.258500
2561 VSS VSS:2562 0.173300
2562 VSS VSS:2563 0.196200
2563 VSS VSS:2564 0.229400
2564 VSS VSS:2565 0.217400
2565 VSS VSS:2566 0.215900
2566 VSS VSS:2567 0.225200
2567 VSS VSS:2568 0.200800
2568 VSS VSS:2569 0.186700
2569 VSS VSS:2570 0.161100
2570 VSS VSS:2571 0.129300
2571 VSS VSS:2572 0.124600
2572 VSS VSS:2573 0.096500
2573 VSS VSS:2574 0.086000
2574 VSS VSS:2575 0.085000
2575 VSS VSS:2576 0.056500
2576 VSS VSS:2577 0.069200
2577 VSS VSS:2578 0.091800
2578 VSS VSS:2579 0.032400
2579 VSS VSS:2580 0.096700
2580 VSS VSS:2581 0.139300
2581 VSS VSS:2582 0.116600
2582 VSS VSS:2583 0.087100
2583 VSS VSS:2584 0.121800
2584 VSS VSS:2585 0.077400
2585 VSS VSS:2586 0.035400
2586 VSS VSS:2587 0.111400
2587 VSS VSS:2588 0.265200
2588 VSS VSS:2589 0.232700
2589 VSS VSS:2590 0.122200
2590 VSS VSS:2591 0.209600
2591 VSS VSS:2592 0.159000
2592 VSS VSS:2593 0.137900
2593 VSS VSS:2594 0.154400
2594 VSS VSS:2595 0.239100
2595 VSS VSS:2596 0.241800
2596 VSS VSS:2597 0.174000
2597 VSS VSS:2598 0.219100
2598 VSS VSS:2599 0.195300
2599 VSS VSS:2600 0.128500
2600 VSS VSS:2601 0.159300
2601 VSS VSS:2602 0.195900
2602 VSS VSS:2603 0.100400
2603 VSS VSS:2604 0.078500
2604 VSS VSS:2605 0.212800
2605 VSS VSS:2606 0.179800
2606 VSS VSS:2607 0.175900
2607 VSS VSS:2608 0.244300
2608 VSS VSS:2609 0.247700
2609 VSS VSS:2610 0.081000
2610 VSS VSS:2611 0.084200
2611 VSS VSS:2612 0.029900
2612 VSS VSS:2613 0.269000
2613 VSS VSS:2614 0.025000
2614 VSS VSS:2615 0.051000
2615 VSS VSS:2616 0.109600
2616 VSS VSS:2617 0.128800
2617 VSS VSS:2618 0.141500
2618 VSS VSS:2619 0.187100
2619 VSS VSS:2620 0.167800
2620 VSS VSS:2621 0.115600
2621 VSS VSS:2622 0.108200
2622 VSS VSS:2623 0.129000
2623 VSS VSS:2624 0.061000
2624 VSS VSS:2625 0.198900
2625 VSS VSS:2626 0.203000
2626 VSS VSS:2627 0.210400
2627 VSS VSS:2628 0.168600
2628 VSS VSS:2629 0.193900
2629 VSS VSS:2630 0.220800
2630 VSS VSS:2631 0.181100
2631 VSS VSS:2632 0.191700
2632 VSS VSS:2633 0.217100
2633 VSS VSS:2634 0.228100
2634 VSS VSS:2635 0.102900
2635 VSS VSS:2636 0.112200
2636 VSS VSS:2637 0.149000
2637 VSS VSS:2638 0.196200
2638 VSS VSS:2639 0.161800
2639 VSS VSS:2640 0.291400
2640 VSS VSS:2641 0.266300
2641 VSS VSS:2642 0.263900
2642 VSS VSS:2643 0.225900
2643 VSS VSS:2644 0.227200
2644 VSS VSS:2645 0.269100
2645 VSS VSS:2646 0.266100
2646 VSS VSS:2647 0.157900
2647 VSS VSS:2648 0.160800
2648 VSS VSS:2649 0.150100
2649 VSS VSS:2650 0.133500
2650 VSS VSS:2651 0.138900
2651 VSS VSS:2652 0.144500
2652 VSS VSS:2653 0.142300
2653 VSS VSS:2654 0.144100
2654 VSS VSS:2655 0.140800
2655 VSS VSS:2656 0.146100
2656 VSS VSS:2657 0.153000
2657 VSS VSS:2658 0.164400
2658 VSS VSS:2659 0.173000
2659 VSS VSS:2660 0.194700
2660 VSS VSS:2661 0.120500
2661 VSS VSS:2662 0.117400
2662 VSS VSS:2663 0.112400
2663 VSS VSS:2664 0.114900
2664 VSS VSS:2665 0.110000
2665 VSS VSS:2666 0.107500
2666 VSS VSS:2667 0.037200
2667 VSS VSS:2668 0.039200
2668 VSS VSS:2669 0.205600
2669 VSS VSS:2670 0.064800
2670 VSS VSS:2671 0.161800
2671 VSS VSS:2672 0.165200
2672 VSS VSS:2673 0.215900
2673 VSS VSS:2674 0.175300
2674 VSS VSS:2675 0.166600
2675 VSS VSS:2676 0.207600
2676 VSS VSS:2677 0.204900
2677 VSS VSS:2678 0.214500
2678 VSS VSS:2679 0.197400
2679 VSS VSS:2680 0.126100
2680 VSS VSS:2681 0.122300
2681 VSS VSS:2682 0.151500
2682 VSS VSS:2683 0.237700
2683 VSS VSS:2684 0.236800
2684 VSS VSS:2685 0.155300
2685 VSS VSS:2686 0.062600
2686 VSS VSS:2687 0.059000
2687 VSS VSS:2688 0.044700
2688 VSS VSS:2689 0.047600
2689 VSS VSS:2690 0.217500
2690 VSS VSS:2691 0.214100
2691 VSS VSS:2692 0.081500
2692 VSS VSS:2693 0.084900
2693 VSS VSS:2694 0.055200
2694 VSS VSS:2695 0.058200
2695 VSS VSS:2696 0.135800
2696 VSS VSS:2697 0.251100
2697 VSS VSS:2698 0.113000
2698 VSS VSS:2699 0.151900
2699 VSS VSS:2700 0.118700
2700 VSS VSS:2701 0.107200
2701 VSS VSS:2702 0.249500
2702 VSS VSS:2703 0.132900
2703 VSS VSS:2704 0.110100
2704 VSS VSS:2705 0.165400
2705 VSS VSS:2706 0.168300
2706 VSS VSS:2707 0.149000
2707 VSS VSS:2708 0.115800
2708 VSS VSS:2709 0.121600
2709 VSS VSS:2710 0.171200
2710 VSS VSS:2711 0.174400
2711 VSS VSS:2712 0.142100
2712 VSS VSS:2713 0.138700
2713 VSS VSS:2714 0.184600
2714 VSS VSS:2715 0.183100
2715 VSS VSS:2716 0.152300
2716 VSS VSS:2717 0.181700
2717 VSS VSS:2718 0.066700
2718 VSS VSS:2719 0.149400
2719 VSS VSS:2720 0.205000
2720 VSS VSS:2721 0.208000
2721 VSS VSS:2722 0.249700
2722 VSS VSS:2723 0.212300
2723 VSS VSS:2724 0.248900
2724 VSS VSS:2725 0.150400
2725 VSS VSS:2726 0.147700
2726 VSS VSS:2727 0.252300
2727 VSS VSS:2728 0.209400
2728 VSS VSS:2729 0.251100
2729 VSS VSS:2730 0.129500
2730 VSS VSS:2731 0.126400
2731 VSS VSS:2732 0.147300
2732 VSS VSS:2733 0.152100
2733 VSS VSS:2734 0.143100
2734 VSS VSS:2735 0.141500
2735 VSS VSS:2736 0.145100
2736 VSS VSS:2737 0.150800
2737 VSS VSS:2738 0.141700
2738 VSS VSS:2739 0.130900
2739 VSS VSS:2740 0.136200
2740 VSS VSS:2741 0.147300
2741 VSS VSS:2742 0.148500
2742 VSS VSS:2743 0.153600
2743 VSS VSS:2744 0.129900
2744 VSS VSS:2745 0.126900
2745 VSS VSS:2746 0.241900
2746 VSS VSS:2747 0.140500
2747 VSS VSS:2748 0.118300
2748 VSS VSS:2749 0.067700
2749 VSS VSS:2750 0.208100
2750 VSS VSS:2751 0.137600
2751 VSS VSS:2752 0.197400
2752 VSS VSS:2753 0.194000
2753 VSS VSS:2754 0.019600
2754 VSS VSS:2755 0.159800
2755 VSS VSS:2756 0.162400
2756 VSS VSS:2757 0.203200
2757 VSS VSS:2758 0.067600
2758 VSS VSS:2759 0.070400
2759 VSS VSS:2760 0.206500
2760 VSS VSS:2761 0.098000
2761 VSS VSS:2762 0.099700
2762 VSS VSS:2763 0.149700
2763 VSS VSS:2764 0.121500
2764 VSS VSS:2765 0.118500
2765 VSS VSS:2766 0.144700
2766 VSS VSS:2767 0.147100
2767 VSS VSS:2768 0.151100
2768 VSS VSS:2769 0.117100
2769 VSS VSS:2770 0.115800
2770 VSS VSS:2771 0.148400
2771 VSS VSS:2772 0.145900
2772 VSS VSS:2773 0.120000
2773 VSS VSS:2774 0.123000
2774 VSS VSS:2775 0.237000
2775 VSS VSS:2776 0.234300
2776 VSS VSS:2777 0.132300
2777 VSS VSS:2778 0.149600
2778 VSS VSS:2779 0.257900
2779 VSS VSS:2780 0.221000
2780 VSS VSS:2781 0.120500
2781 VSS VSS:2782 0.123200
2782 VSS VSS:2783 0.155400
2783 VSS VSS:2784 0.154900
2784 VSS VSS:2785 0.146400
2785 VSS VSS:2786 0.172400
2786 VSS VSS:2787 0.166300
2787 VSS VSS:2788 0.163800
2788 VSS VSS:2789 0.209600
2789 VSS VSS:2790 0.247700
2790 VSS VSS:2791 0.135000
2791 VSS VSS:2792 0.212400
2792 VSS VSS:2793 0.250200
2793 VSS VSS:2794 0.170700
2794 VSS VSS:2795 0.143900
2795 VSS VSS:2796 0.248700
2796 VSS VSS:2797 0.251300
2797 VSS VSS:2798 0.080800
2798 VSS VSS:2799 0.105900
2799 VSS VSS:2800 0.096500
2800 VSS VSS:2801 0.096800
2801 VSS VSS:2802 0.143900
2802 VSS VSS:2803 0.232500
2803 VSS VSS:2804 0.091600
2804 VSS VSS:2805 0.230000
2805 VSS VSS:2806 0.088000
2806 VSS VSS:2807 0.077300
2807 VSS VSS:2808 0.097600
2808 VSS VSS:2809 0.094800
2809 VSS VSS:2810 0.142900
2810 VSS VSS:2811 0.103900
2811 VSS VSS:2812 0.152500
2812 VSS VSS:2813 0.148400
2813 VSS VSS:2814 0.080800
2814 VSS VSS:2815 0.076600
2815 VSS VSS:2816 0.073900
2816 VSS VSS:2817 0.133900
2817 VSS VSS:2818 0.142300
2818 VSS VSS:2819 0.093500
2819 VSS VSS:2820 0.119300
2820 VSS VSS:2821 0.135700
2821 VSS VSS:2822 0.146100
2822 VSS VSS:2823 0.130300
2823 VSS VSS:2824 0.149500
2824 VSS VSS:2825 0.143700
2825 VSS VSS:2826 0.136600
2826 VSS VSS:2827 0.217100
2827 VSS VSS:2828 0.078100
2828 VSS VSS:2829 0.021900
2829 VSS VSS:2830 0.122000
2830 VSS VSS:2831 0.166600
2831 VSS VSS:2832 0.089800
2832 VSS VSS:2833 0.128200
2833 VSS VSS:2834 0.162200
2834 VSS VSS:2835 0.123100
2835 VSS VSS:2836 0.139800
2836 VSS VSS:2837 0.152800
2837 VSS VSS:2838 0.180300
2838 VSS VSS:2839 0.071200
2839 VSS VSS:2840 0.087100
2840 VSS VSS:2841 0.171200
2841 VSS VSS:2842 0.125100
2842 VSS VSS:2843 0.203900
2843 VSS VSS:2844 0.065500
2844 VSS VSS:2845 0.194100
2845 VSS VSS:2846 0.188400
2846 VSS VSS:2847 0.177200
2847 VSS VSS:2848 0.171600
2848 VSS VSS:2849 0.168800
2849 VSS VSS:2850 0.007800
2850 VSS VSS:2851 0.011200
2851 VSS VSS:2852 0.075800
2852 VSS VSS:2853 0.083000
2853 VSS VSS:2854 0.150800
2854 VSS VSS:2855 0.220300
2855 VSS VSS:2856 0.122600
2856 VSS VSS:2857 0.182800
2857 VSS VSS:2858 0.064000
2858 VSS VSS:2859 0.193800
2859 VSS VSS:2860 0.130900
2860 VSS VSS:2861 0.203700
2861 VSS VSS:2862 0.199700
2862 VSS VSS:2863 0.150100
2863 VSS VSS:2864 0.168900
2864 VSS VSS:2865 0.125400
2865 VSS VSS:2866 0.146600
2866 VSS VSS:2867 0.138400
2867 VSS VSS:2868 0.091600
2868 VSS VSS:2869 0.125600
2869 VSS VSS:2870 0.023500
2870 VSS VSS:2871 0.020500
2871 VSS VSS:2872 0.219700
2872 VSS VSS:2873 0.164400
2873 VSS VSS:2874 0.120600
2874 VSS VSS:2875 0.148600
2875 VSS VSS:2876 0.095400
2876 VSS VSS:2877 0.118100
2877 VSS VSS:2878 0.122200
2878 VSS VSS:2879 0.179000
2879 VSS VSS:2880 0.181700
2880 VSS VSS:2881 0.089300
2881 VSS VSS:2882 0.062800
2882 VSS VSS:2883 0.073500
2883 VSS VSS:2884 0.173600
2884 VSS VSS:2885 0.201200
2885 VSS VSS:2886 0.206700
2886 VSS VSS:2887 0.209400
2887 VSS VSS:2888 0.128000
2888 VSS VSS:2889 0.136300
2889 VSS VSS:2890 0.137300
2890 VSS VSS:2891 0.213400
2891 VSS VSS:2892 0.196900
2892 VSS VSS:2893 0.191200
2893 VSS VSS:2894 0.185600
2894 VSS VSS:2895 0.180000
2895 VSS VSS:2896 0.174400
2896 VSS VSS:2897 0.007400
2897 VSS VSS:2898 0.009200
2898 VSS VSS:2899 0.239700
2899 VSS VSS:2900 0.133000
2900 VSS VSS:2901 0.069000
2901 VSS VSS:2902 0.205900
2902 VSS VSS:2903 0.116200
2903 VSS VSS:2904 0.085000
2904 VSS VSS:2905 0.223200
2905 VSS VSS:2906 0.217400
2906 VSS VSS:2907 0.119800
2907 VSS VSS:2908 0.196700
2908 VSS VSS:2909 0.194600
2909 VSS VSS:2910 0.197800
2910 VSS VSS:2911 0.194600
2911 VSS VSS:2912 0.138400
2912 VSS VSS:2913 0.173900
2913 VSS VSS:2914 0.107000
2914 VSS VSS:2915 0.157500
2915 VSS VSS:2916 0.133500
2916 VSS VSS:2917 0.077300
2917 VSS VSS:2918 0.079000
2918 VSS VSS:2919 0.191500
2919 VSS VSS:2920 0.073700
2920 VSS VSS:2921 0.075500
2921 VSS VSS:2922 0.156400
2922 VSS VSS:2923 0.134100
2923 VSS VSS:2924 0.171000
2924 VSS VSS:2925 0.140300
2925 VSS VSS:2926 0.107500
2926 VSS VSS:2927 0.152400
2927 VSS VSS:2928 0.152300
2928 VSS VSS:2929 0.091100
2929 VSS VSS:2930 0.190100
2930 VSS VSS:2931 0.074600
2931 VSS VSS:2932 0.225200
2932 VSS VSS:2933 0.100700
2933 VSS VSS:2934 0.118300
2934 VSS VSS:2935 0.126100
2935 VSS VSS:2936 0.222700
2936 VSS VSS:2937 0.089600
2937 VSS VSS:2938 0.117000
2938 VSS VSS:2939 0.126200
2939 VSS VSS:2940 0.074300
2940 VSS VSS:2941 0.188000
2941 VSS VSS:2942 0.100600
2942 VSS VSS:2943 0.195000
2943 VSS VSS:2944 0.195800
2944 VSS VSS:2945 0.207500
2945 VSS VSS:2946 0.205600
2946 VSS VSS:2947 0.185500
2947 VSS VSS:2948 0.128000
2948 VSS VSS:2949 0.111600
2949 VSS VSS:2950 0.208400
2950 VSS VSS:2951 0.168600
2951 VSS VSS:2952 0.153400
2952 VSS VSS:2953 0.114500
2953 VSS VSS:2954 0.205000
2954 VSS VSS:2955 0.130400
2955 VSS VSS:2956 0.170400
2956 VSS VSS:2957 0.156500
2957 VSS VSS:2958 0.187600
2958 VSS VSS:2959 0.230900
2959 VSS VSS:2960 0.237600
2960 VSS VSS:2961 0.158400
2961 VSS VSS:2962 0.180500
2962 VSS VSS:2963 0.099000
2963 VSS VSS:2964 0.140200
2964 VSS VSS:2965 0.125000
2965 VSS VSS:2966 0.214300
2966 VSS VSS:2967 0.083900
2967 VSS VSS:2968 0.151300
2968 VSS VSS:2969 0.260500
2969 VSS VSS:2970 0.111800
2970 VSS VSS:2971 0.072500
2971 VSS VSS:2972 0.205400
2972 VSS VSS:2973 0.181900
2973 VSS VSS:2974 0.223800
2974 VSS VSS:2975 0.207300
2975 VSS VSS:2976 0.239800
2976 VSS VSS:2977 0.183400
2977 VSS VSS:2978 0.072900
2978 VSS VSS:2979 0.182600
2979 VSS VSS:2980 0.085400
2980 VSS VSS:2981 0.113200
2981 VSS VSS:2982 0.099300
2982 VSS VSS:2983 0.216700
2983 VSS VSS:2984 0.255700
2984 VSS VSS:2985 0.253400
2985 VSS VSS:2986 0.141400
2986 VSS VSS:2987 0.125300
2987 VSS VSS:2988 0.160100
2988 VSS VSS:2989 0.233400
2989 VSS VSS:2990 0.151600
2990 VSS VSS:2991 0.261600
2991 VSS VSS:2992 0.264700
2992 VSS VSS:2993 0.242700
2993 VSS VSS:2994 0.190000
2994 VSS VSS:2995 0.167200
2995 VSS VSS:2996 0.146800
2996 VSS VSS:2997 0.215000
2997 VSS VSS:2998 0.248500
2998 VSS VSS:2999 0.239500
2999 VSS VSS:3000 0.245400
3000 VSS VSS:3001 0.212200
3001 VSS VSS:3002 0.164600
3002 VSS VSS:3003 0.144600
3003 VSS VSS:3004 0.187500
3004 VSS VSS:3005 0.156300
3005 VSS VSS:3006 0.156600
3006 VSS VSS:3007 0.129600
3007 VSS VSS:3008 0.233400
3008 VSS VSS:3009 0.071000
3009 VSS VSS:3010 0.230800
3010 VSS VSS:3011 0.177900
3011 VSS VSS:3012 0.117200
3012 VSS VSS:3013 0.232100
3013 VSS VSS:3014 0.103700
3014 VSS VSS:3015 0.151200
3015 VSS VSS:3016 0.224600
3016 VSS VSS:3017 0.188600
3017 VSS VSS:3018 0.201500
3018 VSS VSS:3019 0.159300
3019 VSS VSS:3020 0.097400
3020 VSS VSS:3021 0.104200
3021 VSS VSS:3022 0.078100
3022 VSS VSS:3023 0.096100
3023 VSS VSS:3024 0.051300
3024 VSS VSS:3025 0.185300
3025 VSS VSS:3026 0.175500
3026 VSS VSS:3027 0.058200
3027 VSS VSS:3028 0.091000
3028 VSS VSS:3029 0.093600
3029 VSS VSS:3030 0.066800
3030 VSS VSS:3031 0.251400
3031 VSS VSS:3032 0.107700
3032 VSS VSS:3033 0.021600
3033 VSS VSS:3034 0.075300
3034 VSS VSS:3035 0.205900
3035 VSS VSS:3036 0.276000
3036 VSS VSS:3037 0.110100
3037 VSS VSS:3038 0.116600
3038 VSS VSS:3039 0.139200
3039 VSS VSS:3040 0.116000
3040 VSS VSS:3041 0.130200
3041 VSS VSS:3042 0.025100
3042 VSS VSS:3043 0.078300
3043 VSS VSS:3044 0.057200
3044 VSS VSS:3045 0.088300
3045 VSS VSS:3046 0.090300
3046 VSS VSS:3047 0.208800
3047 VSS VSS:3048 0.228000
3048 VSS VSS:3049 0.111100
3049 VSS VSS:3050 0.140300
3050 VSS VSS:3051 0.178000
3051 VSS VSS:3052 0.229100
3052 VSS VSS:3053 0.112800
3053 VSS VSS:3054 0.025100
3054 VSS VSS:3055 0.077800
3055 VSS VSS:3056 0.106900
3056 VSS VSS:3057 0.064400
3057 VSS VSS:3058 0.278800
3058 VSS VSS:3059 0.024900
3059 VSS VSS:3060 0.051200
3060 VSS VSS:3061 0.185600
3061 VSS VSS:3062 0.103800
3062 VSS VSS:3063 0.114900
3063 VSS VSS:3064 0.095100
3064 VSS VSS:3065 0.175800
3065 VSS VSS:3066 0.236900
3066 VSS VSS:3067 0.073500
3067 VSS VSS:3068 0.254500
3068 VSS VSS:3069 0.234300
3069 VSS VSS:3070 0.112700
3070 VSS VSS:3071 0.191700
3071 VSS VSS:3072 0.198400
3072 VSS VSS:3073 0.159800
3073 VSS VSS:3074 0.118900
3074 VSS VSS:3075 0.130000
3075 VSS VSS:3076 0.098000
3076 VSS VSS:3077 0.133100
3077 VSS VSS:3078 0.154500
3078 VSS VSS:3079 0.157100
3079 VSS VSS:3080 0.157500
3080 VSS VSS:3081 0.186100
3081 VSS VSS:3082 0.102300
3082 VSS VSS:3083 0.211800
3083 VSS VSS:3084 0.052800
3084 VSS VSS:3085 0.177800
3085 VSS VSS:3086 0.126800
3086 VSS VSS:3087 0.067100
3087 VSS VSS:3088 0.185300
3088 VSS VSS:3089 0.075000
3089 VSS VSS:3090 0.009700
3090 VSS VSS:3091 0.105700
3091 VSS VSS:3092 0.077700
3092 VSS VSS:3093 0.112700
3093 VSS VSS:3094 0.100900
3094 VSS VSS:3095 0.213500
3095 VSS VSS:3096 0.063900
3096 VSS VSS:3097 0.105000
3097 VSS VSS:3098 0.195700
3098 VSS VSS:3099 0.140100
3099 VSS VSS:3100 0.158900
3100 VSS VSS:3101 0.118000
3101 VSS VSS:3102 0.221600
3102 VSS VSS:3103 0.093700
3103 VSS VSS:3104 0.240500
3104 VSS VSS:3105 0.242700
3105 VSS VSS:3106 0.168000
3106 VSS VSS:3107 0.266300
3107 VSS VSS:3108 0.122500
3108 VSS VSS:3109 0.131100
3109 VSS VSS:3110 0.028600
3110 VSS VSS:3111 0.063700
3111 VSS VSS:3112 0.096100
3112 VSS VSS:3113 0.089500
3113 VSS VSS:3114 0.105000
3114 VSS VSS:3115 0.219300
3115 VSS VSS:3116 0.135400
3116 VSS VSS:3117 0.026900
3117 VSS VSS:3118 0.101300
3118 VSS VSS:3119 0.099900
3119 VSS VSS:3120 0.097600
3120 VSS VSS:3121 0.170400
3121 VSS VSS:3122 0.069700
3122 VSS VSS:3123 0.130700
3123 VSS VSS:3124 0.121800
3124 VSS VSS:3125 0.136600
3125 VSS VSS:3126 0.097000
3126 VSS VSS:3127 0.013600
3127 VSS VSS:3128 0.104700
3128 VSS VSS:3129 0.061700
3129 VSS VSS:3130 0.120500
3130 VSS VSS:3131 0.123300
3131 VSS VSS:3132 0.105100
3132 VSS VSS:3133 0.052000
3133 VSS VSS:3134 0.185200
3134 VSS VSS:3135 0.223000
3135 VSS VSS:3136 0.183400
3136 VSS VSS:3137 0.225500
3137 VSS VSS:3138 0.143700
3138 VSS VSS:3139 0.181400
3139 VSS VSS:3140 0.102400
3140 VSS VSS:3141 0.091600
3141 VSS VSS:3142 0.077600
3142 VSS VSS:3143 0.072200
3143 VSS VSS:3144 0.217200
3144 VSS VSS:3145 0.158900
3145 VSS VSS:3146 0.244100
3146 VSS VSS:3147 0.239200
3147 VSS VSS:3148 0.199000
3148 VSS VSS:3149 0.208400
3149 VSS VSS:3150 0.269500
3150 VSS VSS:3151 0.114100
3151 VSS VSS:3152 0.066000
3152 VSS VSS:3153 0.268400
3153 VSS VSS:3154 0.270900
3154 VSS VSS:3155 0.087300
3155 VSS VSS:3156 0.147600
3156 VSS VSS:3157 0.034800
3157 VSS VSS:3158 0.161600
3158 VSS VSS:3159 0.196300
3159 VSS VSS:3160 0.177700
3160 VSS VSS:3161 0.149600
3161 VSS VSS:3162 0.113600
3162 VSS VSS:3163 0.237800
3163 VSS VSS:3164 0.207000
3164 VSS VSS:3165 0.227800
3165 VSS VSS:3166 0.175700
3166 VSS VSS:3167 0.221300
3167 VSS VSS:3168 0.214000
3168 VSS VSS:3169 0.217900
3169 VSS VSS:3170 0.125600
3170 VSS VSS:3171 0.201600
3171 VSS VSS:3172 0.183600
3172 VSS VSS:3173 0.203700
3173 VSS VSS:3174 0.209100
3174 VSS VSS:3175 0.233800
3175 VSS VSS:3176 0.223900
3176 VSS VSS:3177 0.199100
3177 VSS VSS:3178 0.210900
3178 VSS VSS:3179 0.198000
3179 VSS VSS:3180 0.171400
3180 VSS VSS:3181 0.074400
3181 VSS VSS:3182 0.167600
3182 VSS VSS:3183 0.234800
3183 VSS VSS:3184 0.236000
3184 VSS VSS:3185 0.151100
3185 VSS VSS:3186 0.239500
3186 VSS VSS:3187 0.258100
3187 VSS VSS:3188 0.135500
3188 VSS VSS:3189 0.182200
3189 VSS VSS:3190 0.101700
3190 VSS VSS:3191 0.040700
3191 VSS VSS:3192 0.129200
3192 VSS VSS:3193 0.101300
3193 VSS VSS:3194 0.285200
3194 VSS VSS:3195 0.121500
3195 VSS VSS:3196 0.207200
3196 VSS VSS:3197 0.224400
3197 VSS VSS:3198 0.103700
3198 VSS VSS:3199 0.153000
3199 VSS VSS:3200 0.263900
3200 VSS VSS:3201 0.224700
3201 VSS VSS:3202 0.172600
3202 VSS VSS:3203 0.197000
3203 VSS VSS:3204 0.174900
3204 VSS VSS:3205 0.072300
3205 VSS VSS:3206 0.207600
3206 VSS VSS:3207 0.232700
3207 VSS VSS:3208 0.171100
3208 VSS VSS:3209 0.220600
3209 VSS VSS:3210 0.239400
3210 VSS VSS:3211 0.205700
3211 VSS VSS:3212 0.242900
3212 VSS VSS:3213 0.184900
3213 VSS VSS:3214 0.212300
3214 VSS VSS:3215 0.214700
3215 VSS VSS:3216 0.261100
3216 VSS VSS:3217 0.127400
3217 VSS VSS:3218 0.219400
3218 VSS VSS:3219 0.105000
3219 VSS VSS:3220 0.164000
3220 VSS VSS:3221 0.266200
3221 VSS VSS:3222 0.194200
3222 VSS VSS:3223 0.203600
3223 VSS VSS:3224 0.099400
3224 VSS VSS:3225 0.124400
3225 VSS VSS:3226 0.176300
3226 VSS VSS:3227 0.287900
3227 VSS VSS:3228 0.209700
3228 VSS VSS:3229 0.221600
3229 VSS VSS:3230 0.037200
3230 VSS VSS:3231 0.035000
3231 VSS VSS:3232 0.100600
3232 VSS VSS:3233 0.151100
3233 VSS VSS:3234 0.181500
3234 VSS VSS:3235 0.113300
3235 VSS VSS:3236 0.199400
3236 VSS VSS:3237 0.205700
3237 VSS VSS:3238 0.126900
3238 VSS VSS:3239 0.197700
3239 VSS VSS:3240 0.231300
3240 VSS VSS:3241 0.151800
3241 VSS VSS:3242 0.132600
3242 VSS VSS:3243 0.144100
3243 VSS VSS:3244 0.087300
3244 VSS VSS:3245 0.240700
3245 VSS VSS:3246 0.154500
3246 VSS VSS:3247 0.173900
3247 VSS VSS:3248 0.227000
3248 VSS VSS:3249 0.243700
3249 VSS VSS:3250 0.128700
3250 VSS VSS:3251 0.131800
3251 VSS VSS:3252 0.188700
3252 VSS VSS:3253 0.254100
3253 VSS VSS:3254 0.200800
3254 VSS VSS:3255 0.238900
3255 VSS VSS:3256 0.159200
3256 VSS VSS:3257 0.177900
3257 VSS VSS:3258 0.248900
3258 VSS VSS:3259 0.256400
3259 VSS VSS:3260 0.160000
3260 VSS VSS:3261 0.116400
3261 VSS VSS:3262 0.217700
3262 VSS VSS:3263 0.224900
3263 VSS VSS:3264 0.170000
3264 VSS VSS:3265 0.263500
3265 VSS VSS:3266 0.235700
3266 VSS VSS:3267 0.159400
3267 VSS VSS:3268 0.209000
3268 VSS VSS:3269 0.214900
3269 VSS VSS:3270 0.093900
3270 VSS VSS:3271 0.191700
3271 VSS VSS:3272 0.183000
3272 VSS VSS:3273 0.252600
3273 VSS VSS:3274 0.140600
3274 VSS VSS:3275 0.057400
3275 VSS VSS:3276 0.255300
3276 VSS VSS:3277 0.108900
3277 VSS VSS:3278 0.141900
3278 VSS VSS:3279 0.246000
3279 VSS VSS:3280 0.086400
3280 VSS VSS:3281 0.197100
3281 VSS VSS:3282 0.209600
3282 VSS VSS:3283 0.186700
3283 VSS VSS:3284 0.234100
3284 VSS VSS:3285 0.229000
3285 VSS VSS:3286 0.073100
3286 VSS VSS:3287 0.213900
3287 VSS VSS:3288 0.078500
3288 VSS VSS:3289 0.081700
3289 VSS VSS:3290 0.114000
3290 VSS VSS:3291 0.057900
3291 VSS VSS:3292 0.092400
3292 VSS VSS:3293 0.226900
3293 VSS VSS:3294 0.117100
3294 VSS VSS:3295 0.183600
3295 VSS VSS:3296 0.251100
3296 VSS VSS:3297 0.133400
3297 VSS VSS:3298 0.217800
3298 VSS VSS:3299 0.204800
3299 VSS VSS:3300 0.159700
3300 VSS VSS:3301 0.005600
3301 VSS VSS:3302 0.133400
3302 VSS VSS:3303 0.206700
3303 VSS VSS:3304 0.038000
3304 VSS VSS:3305 0.163900
3305 VSS VSS:3306 0.164300
3306 VSS VSS:3307 0.042200
3307 VSS VSS:3308 0.191400
3308 VSS VSS:3309 0.246000
3309 VSS VSS:3310 0.246100
3310 VSS VSS:3311 0.119700
3311 VSS VSS:3312 0.082800
3312 VSS VSS:3313 0.115500
3313 VSS VSS:3314 0.170600
3314 VSS VSS:3315 0.067200
3315 VSS VSS:3316 0.188000
3316 VSS VSS:3317 0.144700
3317 VSS VSS:3318 0.130900
3318 VSS VSS:3319 0.079600
3319 VSS VSS:3320 0.089900
3320 VSS VSS:3321 0.143800
3321 VSS VSS:3322 0.126400
3322 VSS VSS:3323 0.082100
3323 VSS VSS:3324 0.100900
3324 VSS VSS:3325 0.145800
3325 VSS VSS:3326 0.237400
3326 VSS VSS:3327 0.058300
3327 VSS VSS:3328 0.199800
3328 VSS VSS:3329 0.213300
3329 VSS VSS:3330 0.125000
3330 VSS VSS:3331 0.117600
3331 VSS VSS:3332 0.103500
3332 VSS VSS:3333 0.233900
3333 VSS VSS:3334 0.109300
3334 VSS VSS:3335 0.205900
3335 VSS VSS:3336 0.190000
3336 VSS VSS:3337 0.135000
3337 VSS VSS:3338 0.161000
3338 VSS VSS:3339 0.084300
3339 VSS VSS:3340 0.247900
3340 VSS VSS:3341 0.125600
3341 VSS VSS:3342 0.127800
3342 VSS VSS:3343 0.265800
3343 VSS VSS:3344 0.111400
3344 VSS VSS:3345 0.071200
3345 VSS VSS:3346 0.040600
3346 VSS VSS:3347 0.168600
3347 VSS VSS:3348 0.113300
3348 VSS VSS:3349 0.229600
3349 VSS VSS:3350 0.078900
3350 VSS VSS:3351 0.195000
3351 VSS VSS:3352 0.002900
3352 VSS VSS:3353 0.064300
3353 VSS VSS:3354 0.084000
3354 VSS VSS:3355 0.056600
3355 VSS VSS:3356 0.134500
3356 VSS VSS:3357 0.139700
3357 VSS VSS:3358 0.231000
3358 VSS VSS:3359 0.035800
3359 VSS VSS:3360 0.215900
3360 VSS VSS:3361 0.172300
3361 VSS VSS:3362 0.246200
3362 VSS VSS:3363 0.253800
3363 VSS VSS:3364 0.213000
3364 VSS VSS:3365 0.187700
3365 VSS VSS:3366 0.194500
3366 VSS VSS:3367 0.232800
3367 VSS VSS:3368 0.090200
3368 VSS VSS:3369 0.155700
3369 VSS VSS:3370 0.171000
3370 VSS VSS:3371 0.089200
3371 VSS VSS:3372 0.116800
3372 VSS VSS:3373 0.115200
3373 VSS VSS:3374 0.142000
3374 VSS VSS:3375 0.127000
3375 VSS VSS:3376 0.116800
3376 VSS VSS:3377 0.185400
3377 VSS VSS:3378 0.083900
3378 VSS VSS:3379 0.178300
3379 VSS VSS:3380 0.198700
3380 VSS VSS:3381 0.147600
3381 VSS VSS:3382 0.144700
3382 VSS VSS:3383 0.234500
3383 VSS VSS:3384 0.216700
3384 VSS VSS:3385 0.084400
3385 VSS VSS:3386 0.059800
3386 VSS VSS:3387 0.080900
3387 VSS VSS:3388 0.103000
3388 VSS VSS:3389 0.147400
3389 VSS VSS:3390 0.212500
3390 VSS VSS:3391 0.240900
3391 VSS VSS:3392 0.198100
3392 VSS VSS:3393 0.126000
3393 VSS VSS:3394 0.137900
3394 VSS VSS:3395 0.192900
3395 VSS VSS:3396 0.156600
3396 VSS VSS:3397 0.222300
3397 VSS VSS:3398 0.249900
3398 VSS VSS:3399 0.289800
3399 VSS VSS:3400 0.292100
3400 VSS VSS:3401 0.166900
3401 VSS VSS:3402 0.132300
3402 VSS VSS:3403 0.212900
3403 VSS VSS:3404 0.236900
3404 VSS VSS:3405 0.211700
3405 VSS VSS:3406 0.108400
3406 VSS VSS:3407 0.129100
3407 VSS VSS:3408 0.190300
3408 VSS VSS:3409 0.158800
3409 VSS VSS:3410 0.159100
3410 VSS VSS:3411 0.132800
3411 VSS VSS:3412 0.253000
3412 VSS VSS:3413 0.129100
3413 VSS VSS:3414 0.201900
3414 VSS VSS:3415 0.165200
3415 VSS VSS:3416 0.159700
3416 VSS VSS:3417 0.162000
3417 VSS VSS:3418 0.202500
3418 VSS VSS:3419 0.187300
3419 VSS VSS:3420 0.204800
3420 VSS VSS:3421 0.095400
3421 VSS VSS:3422 0.214200
3422 VSS VSS:3423 0.109600
3423 VSS VSS:3424 0.106300
3424 VSS VSS:3425 0.117100
3425 VSS VSS:3426 0.058500
3426 VSS VSS:3427 0.219800
3427 VSS VSS:3428 0.186400
3428 VSS VSS:3429 0.207600
3429 VSS VSS:3430 0.242000
3430 VSS VSS:3431 0.209600
3431 VSS VSS:3432 0.236600
3432 VSS VSS:3433 0.194100
3433 VSS VSS:3434 0.256400
3434 VSS VSS:3435 0.082000
3435 VSS VSS:3436 0.235200
3436 VSS VSS:3437 0.225400
3437 VSS VSS:3438 0.243600
3438 VSS VSS:3439 0.249200
3439 VSS VSS:3440 0.179000
3440 VSS VSS:3441 0.236900
3441 VSS VSS:3442 0.159700
3442 VSS VSS:3443 0.174500
3443 VSS VSS:3444 0.234200
3444 VSS VSS:3445 0.117100
3445 VSS VSS:3446 0.154500
3446 VSS VSS:3447 0.263100
3447 VSS VSS:3448 0.161700
3448 VSS VSS:3449 0.189800
3449 VSS VSS:3450 0.279000
3450 VSS VSS:3451 0.202100
3451 VSS VSS:3452 0.081800
3452 VSS VSS:3453 0.142600
3453 VSS VSS:3454 0.256000
3454 VSS VSS:3455 0.137400
3455 VSS VSS:3456 0.239400
3456 VSS VSS:3457 0.217900
3457 VSS VSS:3458 0.202900
3458 VSS VSS:3459 0.197400
3459 VSS VSS:3460 0.214200
3460 VSS VSS:3461 0.166000
3461 VSS VSS:3462 0.158500
3462 VSS VSS:3463 0.164300
3463 VSS VSS:3464 0.172300
3464 VSS VSS:3465 0.209500
3465 VSS VSS:3466 0.237400
3466 VSS VSS:3467 0.203200
3467 VSS VSS:3468 0.215600
3468 VSS VSS:3469 0.159200
3469 VSS VSS:3470 0.215500
3470 VSS VSS:3471 0.241700
3471 VSS VSS:3472 0.132800
3472 VSS VSS:3473 0.123400
3473 VSS VSS:3474 0.128500
3474 VSS VSS:3475 0.175500
3475 VSS VSS:3476 0.162400
3476 VSS VSS:3477 0.204600
3477 VSS VSS:3478 0.199300
3478 VSS VSS:3479 0.190500
3479 VSS VSS:3480 0.236700
3480 VSS VSS:3481 0.176700
3481 VSS VSS:3482 0.162800
3482 VSS VSS:3483 0.181300
3483 VSS VSS:3484 0.162000
3484 VSS VSS:3485 0.119700
3485 VSS VSS:3486 0.239500
3486 VSS VSS:3487 0.231600
3487 VSS VSS:3488 0.211400
3488 VSS VSS:3489 0.160700
3489 VSS VSS:3490 0.243900
3490 VSS VSS:3491 0.258500
3491 VSS VSS:3492 0.247800
3492 VSS VSS:3493 0.245800
3493 VSS VSS:3494 0.199200
3494 VSS VSS:3495 0.191900
3495 VSS VSS:3496 0.281300
3496 VSS VSS:3497 0.220800
3497 VSS VSS:3498 0.205200
3498 VSS VSS:3499 0.206100
3499 VSS VSS:3500 0.167100
3500 VSS VSS:3501 0.217100
3501 VSS VSS:3502 0.200300
3502 VSS VSS:3503 0.161400
3503 VSS VSS:3504 0.156800
3504 VSS VSS:3505 0.239600
3505 VSS VSS:3506 0.265500
3506 VSS VSS:3507 0.174300
3507 VSS VSS:3508 0.206600
3508 VSS VSS:3509 0.135200
3509 VSS VSS:3510 0.178200
3510 VSS VSS:3511 0.243800
3511 VSS VSS:3512 0.241100
3512 VSS VSS:3513 0.251000
3513 VSS VSS:3514 0.169600
3514 VSS VSS:3515 0.149400
3515 VSS VSS:3516 0.200000
3516 VSS VSS:3517 0.207900
3517 VSS VSS:3518 0.211500
3518 VSS VSS:3519 0.257700
3519 VSS VSS:3520 0.273900
3520 VSS VSS:3521 0.197600
3521 VSS VSS:3522 0.231000
3522 VSS VSS:3523 0.211300
3523 VSS VSS:3524 0.172900
3524 VSS VSS:3525 0.253600
3525 VSS VSS:3526 0.215000
3526 VSS VSS:3527 0.276800
3527 VSS VSS:3528 0.234300
3528 VSS VSS:3529 0.200600
3529 VSS VSS:3530 0.202700
3530 VSS VSS:3531 0.152300
3531 VSS VSS:3532 0.260700
3532 VSS VSS:3533 0.277000
3533 VSS VSS:3534 0.280100
3534 VSS VSS:3535 0.247400
3535 VSS VSS:3536 0.224200
3536 VSS VSS:3537 0.159200
3537 VSS VSS:3538 0.275500
3538 VSS VSS:3539 0.241900
3539 VSS VSS:3540 0.228100
3540 VSS VSS:3541 0.182300
3541 VSS VSS:3542 0.255900
3542 VSS VSS:3543 0.228600
3543 VSS VSS:3544 0.107800
3544 VSS VSS:3545 0.218900
3545 VSS VSS:3546 0.208600
3546 VSS VSS:3547 0.120900
3547 VSS VSS:3548 0.186700
3548 VSS VSS:3549 0.139500
3549 VSS VSS:3550 0.052400
3550 VSS VSS:3551 0.114600
3551 VSS VSS:3552 0.205000
3552 VSS VSS:3553 0.185700
3553 VSS VSS:3554 0.142100
3554 VSS VSS:3555 0.159500
3555 VSS VSS:3556 0.035900
3556 VSS VSS:3557 0.243100
3557 VSS VSS:3558 0.198600
3558 VSS VSS:3559 0.220900
3559 VSS VSS:3560 0.233900
3560 VSS VSS:3561 0.160300
3561 VSS VSS:3562 0.135300
3562 VSS VSS:3563 0.201200
3563 VSS VSS:3564 0.145800
3564 VSS VSS:3565 0.156100
3565 VSS VSS:3566 0.081900
3566 VSS VSS:3567 0.238700
3567 VSS VSS:3568 0.154100
3568 VSS VSS:3569 0.114700
3569 VSS VSS:3570 0.087600
3570 VSS VSS:3571 0.219500
3571 VSS VSS:3572 0.204200
3572 VSS VSS:3573 0.180500
3573 VSS VSS:3574 0.229300
3574 VSS VSS:3575 0.111900
3575 VSS VSS:3576 0.091100
3576 VSS VSS:3577 0.197900
3577 VSS VSS:3578 0.228800
3578 VSS VSS:3579 0.222600
3579 VSS VSS:3580 0.235000
3580 VSS VSS:3581 0.115000
3581 VSS VSS:3582 0.094500
3582 VSS VSS:3583 0.226300
3583 VSS VSS:3584 0.201400
3584 VSS VSS:3585 0.201600
3585 VSS VSS:3586 0.217700
3586 VSS VSS:3587 0.114200
3587 VSS VSS:3588 0.156500
3588 VSS VSS:3589 0.206200
3589 VSS VSS:3590 0.181400
3590 VSS VSS:3591 0.199800
3591 VSS VSS:3592 0.218800
3592 VSS VSS:3593 0.225600
3593 VSS VSS:3594 0.230800
3594 VSS VSS:3595 0.157900
3595 VSS VSS:3596 0.163400
3596 VSS VSS:3597 0.200100
3597 VSS VSS:3598 0.079300
3598 VSS VSS:3599 0.035100
3599 VSS VSS:3600 0.159900
3600 VSS VSS:3601 0.111000
3601 VSS VSS:3602 0.105600
3602 VSS VSS:3603 0.250900
3603 VSS VSS:3604 0.228100
3604 VSS VSS:3605 0.203000
3605 VSS VSS:3606 0.239500
3606 VSS VSS:3607 0.231800
3607 VSS VSS:3608 0.143300
3608 VSS VSS:3609 0.048600
3609 VSS VSS:3610 0.133200
3610 VSS VSS:3611 0.215000
3611 VSS VSS:3612 0.258500
3612 VSS VSS:3613 0.240100
3613 VSS VSS:3614 0.231600
3614 VSS VSS:3615 0.155400
3615 VSS VSS:3616 0.180700
3616 VSS VSS:3617 0.122300
3617 VSS VSS:3618 0.087300
3618 VSS VSS:3619 0.235100
3619 VSS VSS:3620 0.231400
3620 VSS VSS:3621 0.217100
3621 VSS VSS:3622 0.184500
3622 VSS VSS:3623 0.142400
3623 VSS VSS:3624 0.144500
3624 VSS VSS:3625 0.183100
3625 VSS VSS:3626 0.278700
*END

*D_NET XcvrSelect 0.055463
*CONN
*P XcvrSelect B
*CAP
1 XcvrSelect:2 0.055463
*RES
1 XcvrSelect XcvrSelect:2 0.167100
*END

*D_NET ZN 1.896081
*CONN
*P ZN B
*CAP
1 ZN:1 1.857494
2 ZN:1 clknet_3_4__leaf_clk 0.003801
3 ZN:1 clknet_3_6__leaf_clk 0.003801
4 ZN:1 clknet_3_7__leaf_clk 0.003801
5 ZN:1 tx_state[4] 0.003801
6 ZN:1 tx_state[5] 0.019582
7 ZN:1 tx_state[6] 0.003801
*RES
1 ZN:1 ZN:2 0.371600
2 ZN:1 ZN:3 0.246400
3 ZN:1 ZN:4 0.554400
4 ZN:1 ZN:5 0.743100
5 ZN:1 ZN:6 0.546200
6 ZN:1 ZN:7 0.734500
7 ZN:1 ZN:8 0.378800
8 ZN:1 ZN:9 0.242700
9 ZN:1 ZN:10 0.242700
10 ZN:1 ZN:11 0.378800
11 ZN:1 ZN:12 0.546200
12 ZN:1 ZN:13 0.734500
13 ZN:1 ZN:14 0.246400
14 ZN:1 ZN:15 0.554400
15 ZN:1 ZN:16 0.371600
16 ZN:1 ZN:17 0.743100
*END

*D_NET ZN 0.918089
*CONN
*P ZN B
*CAP
1 ZN:1 0.879502
2 ZN:1 clknet_3_4__leaf_clk 0.003801
3 ZN:1 clknet_3_6__leaf_clk 0.003801
4 ZN:1 clknet_3_7__leaf_clk 0.003801
5 ZN:1 tx_state[4] 0.003801
6 ZN:1 tx_state[5] 0.019582
7 ZN:1 tx_state[6] 0.003801
*RES
1 ZN:1 ZN:2 0.622400
2 ZN:1 ZN:3 0.633400
3 ZN:1 ZN:4 0.622400
4 ZN:1 ZN:5 0.488600
5 ZN:1 ZN:6 0.488600
6 ZN:1 ZN:7 0.633400
*END

*D_NET ZN 0.918910
*CONN
*P ZN B
*CAP
1 ZN:1 0.880323
2 ZN:1 clknet_3_4__leaf_clk 0.003801
3 ZN:1 clknet_3_6__leaf_clk 0.003801
4 ZN:1 clknet_3_7__leaf_clk 0.003801
5 ZN:1 tx_state[4] 0.003801
6 ZN:1 tx_state[5] 0.019582
7 ZN:1 tx_state[6] 0.003801
*RES
1 ZN:1 ZN:2 0.461500
2 ZN:1 ZN:3 0.469700
3 ZN:1 ZN:4 0.321700
4 ZN:1 ZN:5 0.461500
5 ZN:1 ZN:6 0.317700
6 ZN:1 ZN:7 0.317700
7 ZN:1 ZN:8 0.321700
8 ZN:1 ZN:9 0.469700
*END

*D_NET ZN 0.891520
*CONN
*P ZN B
*CAP
1 ZN:1 0.852933
2 ZN:1 clknet_3_4__leaf_clk 0.003801
3 ZN:1 clknet_3_6__leaf_clk 0.003801
4 ZN:1 clknet_3_7__leaf_clk 0.003801
5 ZN:1 tx_state[4] 0.003801
6 ZN:1 tx_state[5] 0.019582
7 ZN:1 tx_state[6] 0.003801
*RES
1 ZN:1 ZN:2 0.603000
2 ZN:1 ZN:3 0.592600
3 ZN:1 ZN:4 0.592600
4 ZN:1 ZN:5 0.465900
5 ZN:1 ZN:6 0.465900
6 ZN:1 ZN:7 0.603000
*END

*D_NET ZN 0.907025
*CONN
*P ZN B
*CAP
1 ZN:1 0.868438
2 ZN:1 clknet_3_4__leaf_clk 0.003801
3 ZN:1 clknet_3_6__leaf_clk 0.003801
4 ZN:1 clknet_3_7__leaf_clk 0.003801
5 ZN:1 tx_state[4] 0.003801
6 ZN:1 tx_state[5] 0.019582
7 ZN:1 tx_state[6] 0.003801
*RES
1 ZN:1 ZN:2 0.461500
2 ZN:1 ZN:3 0.469700
3 ZN:1 ZN:4 0.321700
4 ZN:1 ZN:5 0.461500
5 ZN:1 ZN:6 0.317700
6 ZN:1 ZN:7 0.317700
7 ZN:1 ZN:8 0.321700
8 ZN:1 ZN:9 0.469700
*END

*D_NET ZN 0.918089
*CONN
*P ZN B
*CAP
1 ZN:1 0.879502
2 ZN:1 clknet_3_4__leaf_clk 0.003801
3 ZN:1 clknet_3_6__leaf_clk 0.003801
4 ZN:1 clknet_3_7__leaf_clk 0.003801
5 ZN:1 tx_state[4] 0.003801
6 ZN:1 tx_state[5] 0.019582
7 ZN:1 tx_state[6] 0.003801
*RES
1 ZN:1 ZN:2 0.622400
2 ZN:1 ZN:3 0.633400
3 ZN:1 ZN:4 0.622400
4 ZN:1 ZN:5 0.488600
5 ZN:1 ZN:6 0.488600
6 ZN:1 ZN:7 0.633400
*END

*D_NET ZN 1.892217
*CONN
*P ZN B
*CAP
1 ZN:1 1.853630
2 ZN:1 clknet_3_4__leaf_clk 0.003801
3 ZN:1 clknet_3_6__leaf_clk 0.003801
4 ZN:1 clknet_3_7__leaf_clk 0.003801
5 ZN:1 tx_state[4] 0.003801
6 ZN:1 tx_state[5] 0.019582
7 ZN:1 tx_state[6] 0.003801
*RES
1 ZN:1 ZN:2 0.743100
2 ZN:1 ZN:3 0.554400
3 ZN:1 ZN:4 0.246400
4 ZN:1 ZN:5 0.371600
5 ZN:1 ZN:6 0.734500
6 ZN:1 ZN:7 0.378800
7 ZN:1 ZN:8 0.546200
8 ZN:1 ZN:9 0.242700
9 ZN:1 ZN:10 0.734500
10 ZN:1 ZN:11 0.378800
11 ZN:1 ZN:12 0.242700
12 ZN:1 ZN:13 0.546200
13 ZN:1 ZN:14 0.554400
14 ZN:1 ZN:15 0.246400
15 ZN:1 ZN:16 0.371600
16 ZN:1 ZN:17 0.743100
*END

*D_NET _000_ 1.407189
*CONN
*P _000_ B
*I _342_:D B
*I _185_:Z B
*CAP
1 _000_ 1.407189
*RES
1 _000_ _000_:2 12.002500
2 _000_ _000_:3 29.646100
3 _000_ _000_:4 14.176700
4 _000_ _000_:5 27.010500
5 _000_ _342_:D 0.000000
6 _000_ _185_:Z 0.000000
*END

*D_NET _001_ 1.802068
*CONN
*P _001_ B
*I _343_:D B
*I _156_:ZN B
*CAP
1 _001_ 1.802068
*RES
1 _001_ _001_:2 21.052100
2 _001_ _001_:3 23.566800
3 _001_ _001_:4 18.310500
4 _001_ _001_:5 8.463800
5 _001_ _001_:6 13.369500
6 _001_ _343_:D 0.000000
7 _001_ _156_:ZN 0.000000
*END

*D_NET _002_ 1.572045
*CONN
*P _002_ B
*I _345_:D B
*I _168_:Z B
*CAP
1 _002_ 1.562789
2 _002_ tx_state[4] 0.004628
3 _002_ tx_state[6] 0.004628
*RES
1 _002_ _002_:2 12.106800
2 _002_ _002_:3 29.903900
3 _002_ _002_:4 14.299900
4 _002_ _002_:5 27.245400
5 _002_ _345_:D 0.000000
6 _002_ _168_:Z 0.000000
*END

*D_NET _003_ 1.470989
*CONN
*P _003_ B
*I _346_:D B
*I _162_:Z B
*CAP
1 _003_ 1.462554
2 _003_ _056_ 0.008435
*RES
1 _003_ _003_:2 14.282700
2 _003_ _003_:3 27.573900
3 _003_ _003_:4 15.747900
4 _003_ _003_:5 25.394600
5 _003_ _346_:D 0.000000
6 _003_ _162_:Z 0.000000
*END

*D_NET _004_ 1.663083
*CONN
*P _004_ B
*I _347_:D B
*I _167_:Z B
*CAP
1 _004_ 1.658455
2 _004_ int_rst_n 0.004628
*RES
1 _004_ _004_:2 15.773400
2 _004_ _004_:3 26.679100
3 _004_ _004_:4 16.862000
4 _004_ _004_:5 24.871100
5 _004_ _347_:D 0.000000
6 _004_ _167_:Z 0.000000
*END

*D_NET _005_ 1.870605
*CONN
*P _005_ B
*I _348_:D B
*I _153_:Z B
*CAP
1 _005_ 1.835530
2 _005_ _055_ 0.009515
3 _005_ _056_ 0.008701
4 _005_ _076_ 0.004628
5 _005_ _077_ 0.007603
6 _005_ tx_state[3] 0.004628
*RES
1 _005_ _005_:2 25.117300
2 _005_ _005_:3 17.267800
3 _005_ _005_:4 24.007700
4 _005_ _005_:5 18.374000
5 _005_ _348_:D 0.000000
6 _005_ _153_:Z 0.000000
*END

*D_NET _006_ 1.587486
*CONN
*P _006_ B
*I _349_:D B
*I _163_:Z B
*CAP
1 _006_ 1.578230
2 _006_ int_rst_n 0.004628
3 _006_ u_eop_detector\/_09_ 0.004628
*RES
1 _006_ _006_:2 14.448200
2 _006_ _006_:3 27.797100
3 _006_ _006_:4 15.880300
4 _006_ _006_:5 25.665600
5 _006_ _349_:D 0.000000
6 _006_ _163_:Z 0.000000
*END

*D_NET _007_ 1.920045
*CONN
*P _007_ B
*I _341_:D B
*I _166_:ZN B
*CAP
1 _007_ 1.915417
2 _007_ _064_ 0.004628
*RES
1 _007_ _007_:2 17.950300
2 _007_ _007_:3 23.800700
3 _007_ _007_:4 14.513100
4 _007_ _007_:5 14.668900
5 _007_ _007_:6 8.120600
6 _007_ _007_:7 6.317200
7 _007_ _341_:D 0.000000
8 _007_ _166_:ZN 0.000000
*END

*D_NET _008_ 1.251625
*CONN
*P _008_ B
*I _344_:D B
*I _161_:ZN B
*CAP
1 _008_ 1.233114
2 _008_ _056_ 0.018511
*RES
1 _008_ _008_:2 24.783800
2 _008_ _008_:3 13.156200
3 _008_ _008_:4 1.937700
4 _008_ _008_:5 6.333900
5 _008_ _008_:6 17.319800
6 _008_ _008_:7 18.770300
7 _008_ _344_:D 0.000000
8 _008_ _161_:ZN 0.000000
*END

*D_NET _009_ 16.285722
*CONN
*P _009_ B
*I u_sync_detector\/_21_:A1 B
*I u_sync_detector\/_16_:I B
*I _287_:A1 B
*I _279_:A1 B
*I _233_:A1 B
*I _146_:ZN B
*CAP
1 _009_ 16.048907
2 _009_ _042_ 0.004628
3 _009_ _053_ 0.003801
4 _009_ _054_ 0.023139
5 _009_ _111_ 0.010247
6 _009_ _130_ 0.004628
7 _009_ _138_ 0.004628
8 _009_ _139_ 0.023508
9 _009_ bus_reset 0.023965
10 _009_ clknet_0_clk 0.013883
11 _009_ clknet_3_1__leaf_clk 0.014864
12 _009_ clknet_3_3__leaf_clk 0.009255
13 _009_ dec_data_valid 0.004628
14 _009_ dec_line_valid 0.004628
15 _009_ destuff_out_valid 0.016858
16 _009_ eop_pulse 0.008429
17 _009_ int_rst_n 0.013883
18 _009_ rx_bitcnt[1] 0.004628
19 _009_ rx_receiving 0.009255
20 _009_ rx_shift[3] 0.004628
21 _009_ rx_shift[4] 0.004628
22 _009_ sync_next 0.009255
23 _009_ u_decoder\/_03_ 0.005565
24 _009_ u_decoder\/_07_ 0.004628
25 _009_ u_sync_detector\/_04_ 0.004628
26 _009_ u_sync_detector\/match[3] 0.004628
*RES
1 _009_ _009_:2 69.199300
2 _009_ _009_:3 69.473000
3 _009_ _009_:4 34.128700
4 _009_ _009_:5 34.699500
5 _009_ _009_:6 34.393800
6 _009_ _009_:7 35.044800
7 _009_ _009_:8 38.106300
8 _009_ _009_:9 37.270900
9 _009_ _009_:10 37.790800
10 _009_ _009_:11 37.512100
11 _009_ _009_:12 44.224700
12 _009_ _009_:13 35.479400
13 _009_ _009_:14 40.973100
14 _009_ _009_:15 29.031800
15 _009_ _009_:16 31.664800
16 _009_ _009_:17 25.656000
17 _009_ _009_:18 72.423500
18 _009_ _009_:19 72.685000
19 _009_ _009_:20 38.636800
20 _009_ _009_:21 28.453400
21 _009_ u_sync_detector\/_21_:A1 0.000000
22 _009_ u_sync_detector\/_16_:I 0.000000
23 _009_ _287_:A1 0.000000
24 _009_ _279_:A1 0.000000
25 _009_ _233_:A1 0.000000
26 _009_ _146_:ZN 0.000000
*END

*D_NET _010_ 1.923004
*CONN
*P _010_ B
*I _331_:D B
*I _192_:ZN B
*CAP
1 _010_ 1.918707
2 _010_ _078_ 0.004297
*RES
1 _010_ _010_:2 11.557200
2 _010_ _010_:3 6.658300
3 _010_ _010_:4 2.798200
4 _010_ _010_:5 6.241100
5 _010_ _010_:6 6.823700
6 _010_ _010_:7 10.017000
7 _010_ _010_:8 8.187000
8 _010_ _010_:9 10.903400
9 _010_ _010_:10 8.146900
10 _010_ _010_:11 5.417900
11 _010_ _010_:12 5.685500
12 _010_ _010_:13 2.957900
13 _010_ _331_:D 0.000000
14 _010_ _192_:ZN 0.000000
*END

*D_NET _011_ 2.919027
*CONN
*P _011_ B
*I _330_:D B
*I _195_:ZN B
*CAP
1 _011_ 2.886735
2 _011_ _054_ 0.008429
3 _011_ _078_ 0.003801
4 _011_ _082_ 0.004989
5 _011_ _083_ 0.008081
6 _011_ _140_ 0.006992
*RES
1 _011_ _011_:2 17.655400
2 _011_ _011_:3 20.535300
3 _011_ _011_:4 1.298500
4 _011_ _011_:5 2.253300
5 _011_ _011_:6 4.998200
6 _011_ _011_:7 3.583600
7 _011_ _011_:8 8.262700
8 _011_ _011_:9 7.160800
9 _011_ _011_:10 5.754100
10 _011_ _011_:11 6.289400
11 _011_ _011_:12 6.419900
12 _011_ _011_:13 5.684400
13 _011_ _330_:D 0.000000
14 _011_ _195_:ZN 0.000000
*END

*D_NET _012_ 1.755304
*CONN
*P _012_ B
*I _304_:D B
*I _202_:ZN B
*CAP
1 _012_ 1.745561
2 _012_ _014_ 0.004628
3 _012_ _054_ 0.000487
4 _012_ _093_ 0.004628
*RES
1 _012_ _012_:2 17.930800
2 _012_ _012_:3 23.882400
3 _012_ _012_:4 6.259000
4 _012_ _012_:5 6.824200
5 _012_ _012_:6 14.500100
6 _012_ _012_:7 15.212400
7 _012_ _304_:D 0.000000
8 _012_ _202_:ZN 0.000000
*END

*D_NET _013_ 1.435112
*CONN
*P _013_ B
*I _303_:D B
*I _205_:ZN B
*CAP
1 _013_ 1.430484
2 _013_ _090_ 0.004628
*RES
1 _013_ _013_:2 13.917100
2 _013_ _013_:3 24.681400
3 _013_ _013_:4 17.504100
4 _013_ _013_:5 17.256800
5 _013_ _013_:6 2.619700
6 _013_ _013_:7 7.222600
7 _013_ _303_:D 0.000000
8 _013_ _205_:ZN 0.000000
*END

*D_NET _014_ 2.072654
*CONN
*P _014_ B
*I _302_:D B
*I _208_:ZN B
*CAP
1 _014_ 2.054142
2 _014_ _054_ 0.004628
3 _014_ _089_ 0.004628
4 _014_ next_byte[0] 0.004628
5 _014_ next_byte[2] 0.004628
*RES
1 _014_ _014_:2 23.533800
2 _014_ _014_:3 19.285400
3 _014_ _014_:4 7.686700
4 _014_ _014_:5 8.102200
5 _014_ _014_:6 13.564600
6 _014_ _014_:7 13.945300
7 _014_ _302_:D 0.000000
8 _014_ _208_:ZN 0.000000
*END

*D_NET _015_ 1.987616
*CONN
*P _015_ B
*I _301_:D B
*I _211_:ZN B
*CAP
1 _015_ 1.978360
2 _015_ clknet_3_4__leaf_clk 0.004628
3 _015_ next_byte[5] 0.004628
*RES
1 _015_ _015_:2 23.425500
2 _015_ _015_:3 19.196600
3 _015_ _015_:4 7.651300
4 _015_ _015_:5 8.064900
5 _015_ _015_:6 13.502200
6 _015_ _015_:7 13.881100
7 _015_ _301_:D 0.000000
8 _015_ _211_:ZN 0.000000
*END

*D_NET _016_ 1.614210
*CONN
*P _016_ B
*I _300_:D B
*I _214_:ZN B
*CAP
1 _016_ 1.588859
2 _016_ _086_ 0.004628
3 _016_ _096_ 0.016095
4 _016_ clk 0.004628
*RES
1 _016_ _016_:2 14.050100
2 _016_ _016_:3 24.917200
3 _016_ _016_:4 17.421700
4 _016_ _016_:5 17.671300
5 _016_ _016_:6 2.644700
6 _016_ _016_:7 7.291600
7 _016_ _300_:D 0.000000
8 _016_ _214_:ZN 0.000000
*END

*D_NET _017_ 1.407929
*CONN
*P _017_ B
*I _299_:D B
*I _217_:ZN B
*CAP
1 _017_ 1.389418
2 _017_ _098_ 0.004628
3 _017_ clknet_0_clk 0.009255
4 _017_ clknet_3_4__leaf_clk 0.004628
*RES
1 _017_ _017_:2 13.913200
2 _017_ _017_:3 24.913000
3 _017_ _017_:4 17.661100
4 _017_ _017_:5 17.830700
5 _017_ _017_:6 2.327900
6 _017_ _017_:7 6.342400
7 _017_ _299_:D 0.000000
8 _017_ _217_:ZN 0.000000
*END

*D_NET _018_ 1.479895
*CONN
*P _018_ B
*I _298_:D B
*I _220_:ZN B
*CAP
1 _018_ 1.466011
2 _018_ _085_ 0.004628
3 _018_ _100_ 0.004628
4 _018_ clknet_3_4__leaf_clk 0.004628
*RES
1 _018_ _018_:2 14.054600
2 _018_ _018_:3 24.356400
3 _018_ _018_:4 16.570500
4 _018_ _018_:5 17.222200
5 _018_ _018_:6 8.009000
6 _018_ _018_:7 3.169000
7 _018_ _298_:D 0.000000
8 _018_ _220_:ZN 0.000000
*END

*D_NET _019_ 2.364625
*CONN
*P _019_ B
*I _328_:D B
*I _226_:ZN B
*CAP
1 _019_ 2.297225
2 _019_ _054_ 0.003801
3 _019_ _055_ 0.009719
4 _019_ _072_ 0.004297
5 _019_ _104_ 0.000679
6 _019_ _106_ 0.008081
7 _019_ tx_bitidx[0] 0.040823
*RES
1 _019_ _019_:2 9.606500
2 _019_ _019_:3 13.724400
3 _019_ _019_:4 2.266700
4 _019_ _019_:5 4.041200
5 _019_ _019_:6 8.408600
6 _019_ _019_:7 6.179500
7 _019_ _019_:8 10.120600
8 _019_ _019_:9 8.013400
9 _019_ _019_:10 5.133900
10 _019_ _019_:11 6.233600
11 _019_ _019_:12 7.672700
12 _019_ _019_:13 5.827000
13 _019_ _328_:D 0.000000
14 _019_ _226_:ZN 0.000000
*END

*D_NET _020_ 1.309062
*CONN
*P _020_ B
*I _329_:D B
*I _229_:Z B
*CAP
1 _020_ 1.304434
2 _020_ _061_ 0.004628
*RES
1 _020_ _020_:2 31.136400
2 _020_ _020_:3 10.029500
3 _020_ _020_:4 12.971900
4 _020_ _020_:5 28.141000
5 _020_ _329_:D 0.000000
6 _020_ _229_:Z 0.000000
*END

*D_NET _021_ 1.381968
*CONN
*P _021_ B
*I _327_:D B
*I _231_:Z B
*CAP
1 _021_ 1.377340
2 _021_ clknet_3_7__leaf_clk 0.004628
*RES
1 _021_ _021_:2 27.834300
2 _021_ _021_:3 13.978900
3 _021_ _021_:4 25.564800
4 _021_ _021_:5 15.355000
5 _021_ _327_:D 0.000000
6 _021_ _231_:Z 0.000000
*END

*D_NET _022_ 1.362391
*CONN
*P _022_ B
*I _308_:D B
*I _236_:ZN B
*CAP
1 _022_ 1.350924
2 _022_ rx_bitcnt[2] 0.011467
*RES
1 _022_ _022_:2 22.988000
2 _022_ _022_:3 14.571600
3 _022_ _022_:4 4.267700
4 _022_ _022_:5 10.857700
5 _022_ _022_:6 15.397000
6 _022_ _022_:7 14.759700
7 _022_ _308_:D 0.000000
8 _022_ _236_:ZN 0.000000
*END

*D_NET _023_ 1.195366
*CONN
*P _023_ B
*I _322_:D B
*I _238_:Z B
*CAP
1 _023_ 1.195366
*RES
1 _023_ _023_:2 31.385400
2 _023_ _023_:3 9.460100
3 _023_ _023_:4 28.104700
4 _023_ _023_:5 12.534200
5 _023_ _322_:D 0.000000
6 _023_ _238_:Z 0.000000
*END

*D_NET _024_ 1.684110
*CONN
*P _024_ B
*I _315_:D B
*I _241_:Z B
*CAP
1 _024_ 1.679482
2 _024_ clknet_3_0__leaf_clk 0.004628
*RES
1 _024_ _024_:2 26.394100
2 _024_ _024_:3 15.671400
3 _024_ _024_:4 24.815700
4 _024_ _024_:5 17.214800
5 _024_ _315_:D 0.000000
6 _024_ _241_:Z 0.000000
*END

*D_NET _025_ 1.318810
*CONN
*P _025_ B
*I _321_:D B
*I _242_:Z B
*CAP
1 _025_ 1.314182
2 _025_ clknet_3_0__leaf_clk 0.004628
*RES
1 _025_ _025_:2 10.601000
2 _025_ _025_:3 30.546300
3 _025_ _025_:4 13.181300
4 _025_ _025_:5 27.678200
5 _025_ _321_:D 0.000000
6 _025_ _242_:Z 0.000000
*END

*D_NET _026_ 2.329585
*CONN
*P _026_ B
*I _337_:D B
*I _244_:ZN B
*CAP
1 _026_ 2.303921
2 _026_ _054_ 0.003801
3 _026_ _069_ 0.004297
4 _026_ _072_ 0.003801
5 _026_ _078_ 0.004297
6 _026_ _117_ 0.004988
7 _026_ tx_bitidx[1] 0.004480
*RES
1 _026_ _026_:2 13.513400
2 _026_ _026_:3 17.223800
3 _026_ _026_:4 6.446700
4 _026_ _026_:5 6.925900
5 _026_ _026_:6 9.108400
6 _026_ _026_:7 7.859300
7 _026_ _026_:8 7.713300
8 _026_ _026_:9 5.613700
9 _026_ _026_:10 1.514200
10 _026_ _026_:11 3.528000
11 _026_ _026_:12 4.911200
12 _026_ _026_:13 2.886000
13 _026_ _337_:D 0.000000
14 _026_ _244_:ZN 0.000000
*END

*D_NET _027_ 1.270994
*CONN
*P _027_ B
*I _320_:D B
*I _245_:Z B
*CAP
1 _027_ 1.270994
*RES
1 _027_ _027_:2 10.032100
2 _027_ _027_:3 30.934200
3 _027_ _027_:4 12.890700
4 _027_ _027_:5 27.953500
5 _027_ _320_:D 0.000000
6 _027_ _245_:Z 0.000000
*END

*D_NET _028_ 1.208543
*CONN
*P _028_ B
*I _319_:D B
*I _246_:Z B
*CAP
1 _028_ 1.190032
2 _028_ _114_ 0.018511
*RES
1 _028_ _028_:2 8.662100
2 _028_ _028_:3 32.132900
3 _028_ _028_:4 28.785400
4 _028_ _028_:5 11.904000
5 _028_ _319_:D 0.000000
6 _028_ _246_:Z 0.000000
*END

*D_NET _029_ 1.244074
*CONN
*P _029_ B
*I _318_:D B
*I _247_:Z B
*CAP
1 _029_ 1.234818
2 _029_ _054_ 0.004628
3 _029_ rx_shift[3] 0.004628
*RES
1 _029_ _029_:2 31.671400
2 _029_ _029_:3 9.321800
3 _029_ _029_:4 28.451400
4 _029_ _029_:5 12.201900
5 _029_ _318_:D 0.000000
6 _029_ _247_:Z 0.000000
*END

*D_NET _030_ 1.473889
*CONN
*P _030_ B
*I _323_:D B
*I _248_:Z B
*CAP
1 _030_ 1.473889
*RES
1 _030_ _030_:2 25.784800
2 _030_ _030_:3 15.183500
3 _030_ _030_:4 27.955400
4 _030_ _030_:5 13.803500
5 _030_ _323_:D 0.000000
6 _030_ _248_:Z 0.000000
*END

*D_NET _031_ 1.153540
*CONN
*P _031_ B
*I _317_:D B
*I _249_:Z B
*CAP
1 _031_ 1.153540
*RES
1 _031_ _031_:2 32.192100
2 _031_ _031_:3 8.437700
3 _031_ _031_:4 28.795400
4 _031_ _031_:5 11.844600
5 _031_ _317_:D 0.000000
6 _031_ _249_:Z 0.000000
*END

*D_NET _032_ 2.280076
*CONN
*P _032_ B
*I _338_:D B
*I _255_:ZN B
*CAP
1 _032_ 2.231323
2 _032_ _044_ 0.004628
3 _032_ _054_ 0.004628
4 _032_ _119_ 0.001653
5 _032_ _121_ 0.004628
6 _032_ _122_ 0.004628
7 _032_ clknet_3_3__leaf_clk 0.004628
8 _032_ enc_line_valid 0.014704
9 _032_ rx_receiving 0.004628
10 _032_ u_eop_detector\/_08_ 0.004628
*RES
1 _032_ _032_:2 21.598700
2 _032_ _032_:3 21.820100
3 _032_ _032_:4 15.481500
4 _032_ _032_:5 13.147600
5 _032_ _032_:6 15.356300
6 _032_ _338_:D 0.000000
7 _032_ _255_:ZN 0.000000
*END

*D_NET _033_ 1.374700
*CONN
*P _033_ B
*I _316_:D B
*I _256_:Z B
*CAP
1 _033_ 1.374700
*RES
1 _033_ _033_:2 10.849500
2 _033_ _033_:3 30.397300
3 _033_ _033_:4 13.602000
4 _033_ _033_:5 27.457200
5 _033_ _316_:D 0.000000
6 _033_ _256_:Z 0.000000
*END

*D_NET _034_ 1.244510
*CONN
*P _034_ B
*I _305_:D B
*I _259_:ZN B
*CAP
1 _034_ 1.235254
2 _034_ _124_ 0.004628
3 _034_ clknet_0_clk 0.004628
*RES
1 _034_ _034_:2 24.674300
2 _034_ _034_:3 13.449400
3 _034_ _034_:4 2.887500
4 _034_ _034_:5 5.228700
5 _034_ _034_:6 17.153000
6 _034_ _034_:7 18.908900
7 _034_ _305_:D 0.000000
8 _034_ _259_:ZN 0.000000
*END

*D_NET _035_ 1.297554
*CONN
*P _035_ B
*I _324_:D B
*I _260_:ZN B
*CAP
1 _035_ 1.297554
*RES
1 _035_ _035_:2 29.365000
2 _035_ _035_:3 11.888900
3 _035_ _035_:4 13.492000
4 _035_ _035_:5 27.561600
5 _035_ _324_:D 0.000000
6 _035_ _260_:ZN 0.000000
*END

*D_NET _036_ 1.283920
*CONN
*P _036_ B
*I _339_:D B
*I _262_:ZN B
*CAP
1 _036_ 1.272453
2 _036_ _088_ 0.011467
*RES
1 _036_ _036_:2 23.729500
2 _036_ _036_:3 13.602300
3 _036_ _036_:4 2.682500
4 _036_ _036_:5 9.834200
5 _036_ _036_:6 16.318100
6 _036_ _036_:7 16.315000
7 _036_ _339_:D 0.000000
8 _036_ _262_:ZN 0.000000
*END

*D_NET _037_ 1.285368
*CONN
*P _037_ B
*I _314_:D B
*I _264_:Z B
*CAP
1 _037_ 1.285368
*RES
1 _037_ _037_:2 11.095300
2 _037_ _037_:3 30.209400
3 _037_ _037_:4 13.604200
4 _037_ _037_:5 27.386700
5 _037_ _314_:D 0.000000
6 _037_ _264_:Z 0.000000
*END

*D_NET _038_ 1.246447
*CONN
*P _038_ B
*I _313_:D B
*I _266_:Z B
*CAP
1 _038_ 1.246447
*RES
1 _038_ _038_:2 31.101900
2 _038_ _038_:3 9.960400
3 _038_ _038_:4 12.926400
4 _038_ _038_:5 28.093400
5 _038_ _313_:D 0.000000
6 _038_ _266_:Z 0.000000
*END

*D_NET _039_ 1.134727
*CONN
*P _039_ B
*I _312_:D B
*I _268_:Z B
*CAP
1 _039_ 1.124397
2 _039_ _128_ 0.005702
3 _039_ rx_shift[5] 0.004628
*RES
1 _039_ _039_:2 30.924000
2 _039_ _039_:3 10.079600
3 _039_ _039_:4 27.857000
4 _039_ _039_:5 12.714200
5 _039_ _312_:D 0.000000
6 _039_ _268_:Z 0.000000
*END

*D_NET _040_ 1.249961
*CONN
*P _040_ B
*I _311_:D B
*I _270_:Z B
*CAP
1 _040_ 1.245333
2 _040_ clknet_3_1__leaf_clk 0.004628
*RES
1 _040_ _040_:2 9.960400
2 _040_ _040_:3 31.101900
3 _040_ _040_:4 12.926400
4 _040_ _040_:5 28.093400
5 _040_ _311_:D 0.000000
6 _040_ _270_:Z 0.000000
*END

*D_NET _041_ 3.809378
*CONN
*P _041_ B
*I _325_:D B
*I _271_:Z B
*CAP
1 _041_ 3.768337
2 _041_ _114_ 0.008647
3 _041_ clk 0.004628
4 _041_ clknet_3_1__leaf_clk 0.009255
5 _041_ line_state[0] 0.013883
6 _041_ txdp 0.004628
*RES
1 _041_ _041_:2 22.327300
2 _041_ _041_:3 25.028700
3 _041_ _041_:4 24.667900
4 _041_ _041_:5 22.628800
5 _041_ _325_:D 0.000000
6 _041_ _271_:Z 0.000000
*END

*D_NET _042_ 1.090500
*CONN
*P _042_ B
*I _310_:D B
*I _273_:Z B
*CAP
1 _042_ 1.083262
2 _042_ _111_ 0.007238
*RES
1 _042_ _042_:2 32.177600
2 _042_ _042_:3 8.505500
3 _042_ _042_:4 28.826500
4 _042_ _042_:5 11.850700
5 _042_ _310_:D 0.000000
6 _042_ _273_:Z 0.000000
*END

*D_NET _043_ 1.257939
*CONN
*P _043_ B
*I _309_:D B
*I _275_:Z B
*CAP
1 _043_ 1.242981
2 _043_ _131_ 0.005702
3 _043_ clknet_3_1__leaf_clk 0.004628
4 _043_ rx_receiving 0.004628
*RES
1 _043_ _043_:2 10.408000
2 _043_ _043_:3 30.713500
3 _043_ _043_:4 13.181100
4 _043_ _043_:5 27.779500
5 _043_ _309_:D 0.000000
6 _043_ _275_:Z 0.000000
*END

*D_NET _044_ 2.938949
*CONN
*P _044_ B
*I _340_:D B
*I _277_:ZN B
*CAP
1 _044_ 2.934321
2 _044_ _054_ 0.004628
*RES
1 _044_ _044_:2 8.385000
2 _044_ _044_:3 20.521900
3 _044_ _044_:4 23.985400
4 _044_ _044_:5 13.099700
5 _044_ _044_:6 11.769300
6 _044_ _044_:7 12.273300
7 _044_ _340_:D 0.000000
8 _044_ _277_:ZN 0.000000
*END

*D_NET _045_ 1.638975
*CONN
*P _045_ B
*I _307_:D B
*I _279_:ZN B
*CAP
1 _045_ 1.638975
*RES
1 _045_ _045_:2 20.662400
2 _045_ _045_:3 21.920500
3 _045_ _045_:4 15.463300
4 _045_ _045_:5 6.735300
5 _045_ _045_:6 4.978200
6 _045_ _045_:7 2.326200
7 _045_ _045_:8 12.026600
8 _045_ _307_:D 0.000000
9 _045_ _279_:ZN 0.000000
*END

*D_NET _046_ 1.318624
*CONN
*P _046_ B
*I _306_:D B
*I _281_:ZN B
*CAP
1 _046_ 1.316971
2 _046_ rx_bitcnt[0] 0.001653
*RES
1 _046_ _046_:2 23.334000
2 _046_ _046_:3 14.053700
3 _046_ _046_:4 3.510000
4 _046_ _046_:5 10.395100
5 _046_ _046_:6 15.852800
6 _046_ _046_:7 15.516100
7 _046_ _306_:D 0.000000
8 _046_ _281_:ZN 0.000000
*END

*D_NET _047_ 2.565247
*CONN
*P _047_ B
*I _336_:D B
*I _284_:ZN B
*CAP
1 _047_ 2.544256
2 _047_ _078_ 0.004628
3 _047_ _135_ 0.007107
4 _047_ _136_ 0.004628
5 _047_ _141_ 0.004628
*RES
1 _047_ _047_:2 17.977800
2 _047_ _047_:3 14.325400
3 _047_ _047_:4 2.569400
4 _047_ _047_:5 0.693200
5 _047_ _047_:6 4.448100
6 _047_ _047_:7 6.327000
7 _047_ _047_:8 7.752600
8 _047_ _047_:9 9.318300
9 _047_ _047_:10 6.472200
10 _047_ _047_:11 5.673700
11 _047_ _047_:12 5.783800
12 _047_ _047_:13 6.966800
13 _047_ _336_:D 0.000000
14 _047_ _284_:ZN 0.000000
*END

*D_NET _048_ 1.885109
*CONN
*P _048_ B
*I _335_:D B
*I _286_:ZN B
*CAP
1 _048_ 1.876828
2 _048_ _054_ 0.003801
3 _048_ _071_ 0.003801
4 _048_ _078_ 0.000679
*RES
1 _048_ _048_:2 11.512100
2 _048_ _048_:3 6.569500
3 _048_ _048_:4 6.248700
4 _048_ _048_:5 6.915100
5 _048_ _048_:6 10.190800
6 _048_ _048_:7 8.331900
7 _048_ _048_:8 10.664000
8 _048_ _048_:9 7.911200
9 _048_ _048_:10 2.593000
10 _048_ _048_:11 5.188600
11 _048_ _048_:12 5.910100
12 _048_ _048_:13 3.178800
13 _048_ _335_:D 0.000000
14 _048_ _286_:ZN 0.000000
*END

*D_NET _049_ 1.654359
*CONN
*P _049_ B
*I _326_:D B
*I _289_:ZN B
*CAP
1 _049_ 1.642379
2 _049_ _054_ 0.007352
3 _049_ clknet_3_3__leaf_clk 0.004628
*RES
1 _049_ _049_:2 7.850000
2 _049_ _049_:3 24.230100
3 _049_ _049_:4 17.701200
4 _049_ _049_:5 17.407800
5 _049_ _049_:6 16.877200
6 _049_ _326_:D 0.000000
7 _049_ _289_:ZN 0.000000
*END

*D_NET _050_ 2.205679
*CONN
*P _050_ B
*I _334_:D B
*I _292_:ZN B
*CAP
1 _050_ 2.193118
2 _050_ _054_ 0.004628
3 _050_ _078_ 0.000679
4 _050_ _140_ 0.003801
5 _050_ _141_ 0.003453
*RES
1 _050_ _050_:2 8.811400
2 _050_ _050_:3 13.465500
3 _050_ _050_:4 1.990100
4 _050_ _050_:5 3.428000
5 _050_ _050_:6 7.842800
6 _050_ _050_:7 5.561800
7 _050_ _050_:8 11.229700
8 _050_ _050_:9 8.983200
9 _050_ _050_:10 5.575800
10 _050_ _050_:11 7.001900
11 _050_ _050_:12 7.245900
12 _050_ _050_:13 5.518900
13 _050_ _334_:D 0.000000
14 _050_ _292_:ZN 0.000000
*END

*D_NET _051_ 2.524469
*CONN
*P _051_ B
*I _333_:D B
*I _294_:ZN B
*CAP
1 _051_ 2.474258
2 _051_ _054_ 0.003801
3 _051_ _068_ 0.008429
4 _051_ _078_ 0.008099
5 _051_ _142_ 0.008789
6 _051_ clknet_3_5__leaf_clk 0.012168
7 _051_ tx_bitidx[1] 0.008925
*RES
1 _051_ _051_:2 17.991400
2 _051_ _051_:3 14.309500
3 _051_ _051_:4 0.524900
4 _051_ _051_:5 2.408700
5 _051_ _051_:6 6.183800
6 _051_ _051_:7 4.296100
7 _051_ _051_:8 9.501600
8 _051_ _051_:9 7.911100
9 _051_ _051_:10 5.742700
10 _051_ _051_:11 6.594300
11 _051_ _051_:12 6.884200
12 _051_ _051_:13 5.734400
13 _051_ _333_:D 0.000000
14 _051_ _294_:ZN 0.000000
*END

*D_NET _052_ 2.181153
*CONN
*P _052_ B
*I _332_:D B
*I _297_:ZN B
*CAP
1 _052_ 2.149848
2 _052_ _054_ 0.010908
3 _052_ _078_ 0.004976
4 _052_ _143_ 0.004628
5 _052_ _144_ 0.003801
6 _052_ clknet_3_5__leaf_clk 0.006992
*RES
1 _052_ _052_:2 9.528900
2 _052_ _052_:3 13.613500
3 _052_ _052_:4 2.248400
4 _052_ _052_:5 4.008600
5 _052_ _052_:6 8.340700
6 _052_ _052_:7 6.129600
7 _052_ _052_:8 10.038800
8 _052_ _052_:9 7.948700
9 _052_ _052_:10 5.092500
10 _052_ _052_:11 6.183300
11 _052_ _052_:12 7.610700
12 _052_ _052_:13 5.780000
13 _052_ _332_:D 0.000000
14 _052_ _297_:ZN 0.000000
*END

*D_NET _053_ 3.459401
*CONN
*P _053_ B
*I _233_:A2 B
*I _148_:A1 B
*I _147_:ZN B
*CAP
1 _053_ 3.418194
2 _053_ rst_n 0.004185
3 _053_ rx_shift[4] 0.037022
*RES
1 _053_ _053_:2 32.107100
2 _053_ _053_:3 57.845500
3 _053_ _053_:4 34.383700
4 _053_ _053_:5 11.548200
5 _053_ _053_:6 58.703300
6 _053_ _053_:7 33.838300
7 _053_ _053_:8 14.880000
8 _053_ _053_:9 37.625400
9 _053_ _233_:A2 0.000000
10 _053_ _148_:A1 0.000000
11 _053_ _147_:ZN 0.000000
*END

*D_NET _054_ 58.308871
*CONN
*P _054_ B
*I _192_:C B
*I _195_:C B
*I _202_:B B
*I _217_:B B
*I _226_:C B
*I _244_:C B
*I _277_:A2 B
*I _279_:A2 B
*I _286_:C B
*I _297_:C B
*I _156_:A2 B
*I _161_:B B
*I _205_:B B
*I _208_:B B
*I _211_:B B
*I _214_:B B
*I _220_:B B
*I _259_:B B
*I _262_:B B
*I _289_:A1 B
*I _294_:C B
*I _292_:C B
*I _284_:C B
*I _165_:A2 B
*I _149_:I B
*I _148_:Z B
*CAP
1 _054_ 57.569511
2 _054_ _055_ 0.004628
3 _054_ _056_ 0.008712
4 _054_ _057_ 0.008429
5 _054_ _061_ 0.004628
6 _054_ _065_ 0.004958
7 _054_ _068_ 0.004628
8 _054_ _069_ 0.004628
9 _054_ _070_ 0.060160
10 _054_ _071_ 0.004628
11 _054_ _076_ 0.004628
12 _054_ _077_ 0.009255
13 _054_ _078_ 0.009255
14 _054_ _082_ 0.014798
15 _054_ _083_ 0.003801
16 _054_ _085_ 0.009255
17 _054_ _086_ 0.004628
18 _054_ _088_ 0.018511
19 _054_ _089_ 0.004628
20 _054_ _091_ 0.004628
21 _054_ _093_ 0.013883
22 _054_ _094_ 0.004628
23 _054_ _095_ 0.004628
24 _054_ _097_ 0.009255
25 _054_ _101_ 0.004628
26 _054_ _111_ 0.004628
27 _054_ _114_ 0.004628
28 _054_ _117_ 0.003801
29 _054_ _118_ 0.004628
30 _054_ _119_ 0.009255
31 _054_ _120_ 0.004628
32 _054_ _121_ 0.004628
33 _054_ _122_ 0.004628
34 _054_ _124_ 0.004628
35 _054_ _130_ 0.004628
36 _054_ _132_ 0.004628
37 _054_ _137_ 0.003801
38 _054_ _140_ 0.011104
39 _054_ _141_ 0.008429
40 _054_ _142_ 0.008429
41 _054_ _143_ 0.004628
42 _054_ _144_ 0.003801
43 _054_ clk 0.009255
44 _054_ clknet_0_clk 0.018511
45 _054_ clknet_3_1__leaf_clk 0.013883
46 _054_ clknet_3_3__leaf_clk 0.005454
47 _054_ clknet_3_4__leaf_clk 0.010082
48 _054_ clknet_3_5__leaf_clk 0.064788
49 _054_ clknet_3_7__leaf_clk 0.013883
50 _054_ cur_byte[2] 0.018511
51 _054_ cur_byte[4] 0.004628
52 _054_ cur_byte[6] 0.018511
53 _054_ dec_data_bit 0.004628
54 _054_ dec_line_valid 0.009255
55 _054_ destuff_out_valid 0.037022
56 _054_ enc_line_valid 0.004628
57 _054_ int_rst_n 0.013883
58 _054_ line_state[0] 0.004628
59 _054_ line_state[1] 0.004628
60 _054_ next_byte[0] 0.004628
61 _054_ next_byte[1] 0.004628
62 _054_ next_byte[2] 0.009255
63 _054_ next_byte[3] 0.018511
64 _054_ next_valid 0.004628
65 _054_ rx_bitcnt[1] 0.004628
66 _054_ rx_receiving 0.009255
67 _054_ rx_shift[2] 0.009255
68 _054_ rx_shift[3] 0.004628
69 _054_ rxdm 0.004628
70 _054_ rxdp 0.004628
71 _054_ tx_bitidx[1] 0.019013
72 _054_ tx_state[3] 0.013883
73 _054_ txdm 0.004628
74 _054_ txdp 0.009255
75 _054_ u_decoder\/_00_ 0.004628
76 _054_ u_decoder\/_03_ 0.004628
77 _054_ u_decoder\/_04_ 0.004628
78 _054_ u_decoder\/_05_ 0.013883
79 _054_ u_decoder\/_07_ 0.004628
80 _054_ u_eop_detector\/_08_ 0.004628
*RES
1 _054_ _054_:2 47.833500
2 _054_ _054_:3 45.115300
3 _054_ _054_:4 45.754900
4 _054_ _054_:5 45.667800
5 _054_ _054_:6 43.585100
6 _054_ _054_:7 42.561600
7 _054_ _054_:8 73.593900
8 _054_ _054_:9 81.812200
9 _054_ _054_:10 65.642300
10 _054_ _054_:11 55.715500
11 _054_ _054_:12 83.391800
12 _054_ _054_:13 93.111300
13 _054_ _054_:14 93.174600
14 _054_ _054_:15 63.373500
15 _054_ _054_:16 58.532300
16 _054_ _054_:17 27.364500
17 _054_ _054_:18 31.469800
18 _054_ _054_:19 23.613900
19 _054_ _054_:20 28.685000
20 _054_ _054_:21 44.117800
21 _054_ _054_:22 16.089600
22 _054_ _054_:23 33.722500
23 _054_ _054_:24 16.939900
24 _054_ _054_:25 36.345500
25 _054_ _054_:26 15.573000
26 _054_ _054_:27 28.927600
27 _054_ _054_:28 26.259300
28 _054_ _054_:29 28.026800
29 _054_ _054_:30 18.126000
30 _054_ _054_:31 40.744500
31 _054_ _054_:32 27.724900
32 _054_ _054_:33 46.818800
33 _054_ _054_:34 89.659500
34 _054_ _054_:35 57.997500
35 _054_ _054_:36 51.723900
36 _054_ _054_:37 19.463700
37 _054_ _054_:38 51.412400
38 _054_ _054_:39 44.386700
39 _054_ _054_:40 22.095500
40 _054_ _054_:41 27.307800
41 _054_ _054_:42 56.520400
42 _054_ _054_:43 26.402600
43 _054_ _054_:44 55.639300
44 _054_ _054_:45 18.394600
45 _054_ _054_:46 50.746100
46 _054_ _054_:47 20.966500
47 _054_ _054_:48 57.127200
48 _054_ _054_:49 50.415200
49 _054_ _054_:50 43.243400
50 _054_ _054_:51 90.413900
51 _054_ _054_:52 43.836000
52 _054_ _054_:53 20.889400
53 _054_ _054_:54 52.550700
54 _054_ _054_:55 59.307000
55 _054_ _054_:56 48.449100
56 _054_ _054_:57 76.219000
57 _054_ _054_:58 60.161700
58 _054_ _054_:59 48.899300
59 _054_ _054_:60 28.542800
60 _054_ _054_:61 49.946300
61 _054_ _054_:62 53.644300
62 _054_ _054_:63 29.398900
63 _054_ _054_:64 54.575100
64 _054_ _054_:65 19.876000
65 _054_ _054_:66 44.985600
66 _054_ _054_:67 53.513400
67 _054_ _054_:68 21.725600
68 _054_ _054_:69 20.552400
69 _054_ _054_:70 65.092100
70 _054_ _054_:71 63.985000
71 _054_ _054_:72 65.078500
72 _054_ _054_:73 66.119500
73 _054_ _192_:C 0.000000
74 _054_ _195_:C 0.000000
75 _054_ _202_:B 0.000000
76 _054_ _217_:B 0.000000
77 _054_ _226_:C 0.000000
78 _054_ _244_:C 0.000000
79 _054_ _277_:A2 0.000000
80 _054_ _279_:A2 0.000000
81 _054_ _286_:C 0.000000
82 _054_ _297_:C 0.000000
83 _054_ _156_:A2 0.000000
84 _054_ _161_:B 0.000000
85 _054_ _205_:B 0.000000
86 _054_ _208_:B 0.000000
87 _054_ _211_:B 0.000000
88 _054_ _214_:B 0.000000
89 _054_ _220_:B 0.000000
90 _054_ _259_:B 0.000000
91 _054_ _262_:B 0.000000
92 _054_ _289_:A1 0.000000
93 _054_ _294_:C 0.000000
94 _054_ _292_:C 0.000000
95 _054_ _284_:C 0.000000
96 _054_ _165_:A2 0.000000
97 _054_ _149_:I 0.000000
98 _054_ _148_:Z 0.000000
*END

*D_NET _055_ 12.399881
*CONN
*P _055_ B
*I _200_:A2 B
*I _187_:A2 B
*I _173_:A2 B
*I _153_:A2 B
*I _150_:Z B
*CAP
1 _055_ 12.216851
2 _055_ _056_ 0.025852
3 _055_ _057_ 0.006280
4 _055_ _061_ 0.004628
5 _055_ _067_ 0.018511
6 _055_ _076_ 0.004628
7 _055_ _077_ 0.015371
8 _055_ _087_ 0.004628
9 _055_ _088_ 0.006776
10 _055_ _103_ 0.013883
11 _055_ _104_ 0.004628
12 _055_ _106_ 0.003801
13 _055_ int_rst_n 0.013883
14 _055_ next_valid 0.004628
15 _055_ stuff_in_ready 0.004628
16 _055_ stuffer_in_bit 0.004628
17 _055_ tx_bitidx[0] 0.032394
18 _055_ tx_state[0] 0.004628
19 _055_ tx_state[3] 0.009255
*RES
1 _055_ _055_:2 47.244600
2 _055_ _055_:3 6.960600
3 _055_ _055_:4 46.739200
4 _055_ _055_:5 11.823600
5 _055_ _055_:6 12.814200
6 _055_ _055_:7 52.068400
7 _055_ _055_:8 11.843500
8 _055_ _055_:9 51.752400
9 _055_ _055_:10 2.820000
10 _055_ _055_:11 7.067000
11 _055_ _055_:12 5.571400
12 _055_ _055_:13 9.511400
13 _055_ _055_:14 8.459500
14 _055_ _055_:15 13.382000
15 _055_ _055_:16 57.626200
16 _055_ _055_:17 56.293300
17 _055_ _055_:18 49.190100
18 _055_ _055_:19 49.252800
19 _055_ _055_:20 47.579000
20 _055_ _055_:21 44.231500
21 _055_ _055_:22 45.905200
22 _055_ _055_:23 47.671900
23 _055_ _055_:24 46.154100
24 _055_ _055_:25 44.636700
25 _055_ _200_:A2 0.000000
26 _055_ _187_:A2 0.000000
27 _055_ _173_:A2 0.000000
28 _055_ _153_:A2 0.000000
29 _055_ _150_:Z 0.000000
*END

*D_NET _056_ 20.385933
*CONN
*P _056_ B
*I _243_:A2 B
*I _230_:A1 B
*I _222_:A1 B
*I _200_:A1 B
*I _187_:A1 B
*I _184_:B B
*I _183_:C B
*I _152_:A2 B
*I _151_:ZN B
*CAP
1 _056_ 20.223274
2 _056_ _057_ 0.012983
3 _056_ _061_ 0.004628
4 _056_ _063_ 0.004628
5 _056_ _075_ 0.000474
6 _056_ _076_ 0.004628
7 _056_ _077_ 0.018207
8 _056_ _088_ 0.004793
9 _056_ _102_ 0.004628
10 _056_ _103_ 0.004628
11 _056_ _104_ 0.011197
12 _056_ _106_ 0.004628
13 _056_ _109_ 0.003801
14 _056_ _117_ 0.008429
15 _056_ clknet_3_7__leaf_clk 0.004628
16 _056_ int_rst_n 0.004628
17 _056_ next_byte[7] 0.004628
18 _056_ next_valid 0.010489
19 _056_ stuff_in_ready 0.008429
20 _056_ stuffer_in_bit 0.004628
21 _056_ tx_bitidx[0] 0.004628
22 _056_ tx_bitidx[1] 0.014438
23 _056_ tx_bitidx[2] 0.004628
24 _056_ tx_state[0] 0.004628
25 _056_ tx_state[3] 0.009255
*RES
1 _056_ _056_:2 40.339500
2 _056_ _056_:3 47.434700
3 _056_ _056_:4 22.687200
4 _056_ _056_:5 24.467800
5 _056_ _056_:6 23.835800
6 _056_ _056_:7 23.592900
7 _056_ _056_:8 27.754400
8 _056_ _056_:9 71.690700
9 _056_ _056_:10 41.308900
10 _056_ _056_:11 17.350200
11 _056_ _056_:12 76.840500
12 _056_ _056_:13 50.380600
13 _056_ _056_:14 44.689500
14 _056_ _056_:15 69.443900
15 _056_ _056_:16 46.830700
16 _056_ _056_:17 66.911400
17 _056_ _056_:18 16.046800
18 _056_ _056_:19 56.276000
19 _056_ _056_:20 58.858900
20 _056_ _056_:21 5.718000
21 _056_ _056_:22 3.138500
22 _056_ _056_:23 46.920500
23 _056_ _056_:24 72.994800
24 _056_ _056_:25 13.464200
25 _056_ _056_:26 14.813400
26 _056_ _056_:27 17.679100
27 _056_ _056_:28 18.522300
28 _056_ _056_:29 8.417100
29 _056_ _056_:30 59.182100
30 _056_ _056_:31 17.194600
31 _056_ _056_:32 6.981300
32 _056_ _056_:33 56.613900
33 _056_ _056_:34 48.286900
34 _056_ _056_:35 74.181800
35 _056_ _056_:36 51.391600
36 _056_ _056_:37 49.096200
37 _056_ _056_:38 52.498800
38 _056_ _056_:39 54.657000
39 _056_ _243_:A2 0.000000
40 _056_ _230_:A1 0.000000
41 _056_ _222_:A1 0.000000
42 _056_ _200_:A1 0.000000
43 _056_ _187_:A1 0.000000
44 _056_ _184_:B 0.000000
45 _056_ _183_:C 0.000000
46 _056_ _152_:A2 0.000000
47 _056_ _151_:ZN 0.000000
*END

*D_NET _057_ 20.939338
*CONN
*P _057_ B
*I _296_:B B
*I _293_:B B
*I _291_:B B
*I _285_:B B
*I _283_:B B
*I _243_:A3 B
*I _194_:B B
*I _190_:B B
*I _188_:A1 B
*I _153_:A3 B
*I _152_:ZN B
*CAP
1 _057_ 20.732894
2 _057_ _061_ 0.017684
3 _057_ _077_ 0.055533
4 _057_ _080_ 0.007603
5 _057_ _083_ 0.018045
6 _057_ _125_ 0.003801
7 _057_ _136_ 0.012396
8 _057_ _137_ 0.004988
9 _057_ _141_ 0.004988
10 _057_ _142_ 0.008594
11 _057_ clknet_0_clk 0.004628
12 _057_ clknet_3_5__leaf_clk 0.004628
13 _057_ int_rst_n 0.013548
14 _057_ next_byte[2] 0.004628
15 _057_ next_byte[3] 0.003801
16 _057_ next_byte[4] 0.008429
17 _057_ next_byte[6] 0.001487
18 _057_ next_byte[7] 0.008081
19 _057_ next_valid 0.010029
20 _057_ tx_state[3] 0.013553
*RES
1 _057_ _057_:2 75.418100
2 _057_ _057_:3 38.944000
3 _057_ _057_:4 31.252100
4 _057_ _057_:5 68.985900
5 _057_ _057_:6 76.497600
6 _057_ _057_:7 33.533300
7 _057_ _057_:8 40.748800
8 _057_ _057_:9 19.484200
9 _057_ _057_:10 24.264200
10 _057_ _057_:11 32.730100
11 _057_ _057_:12 15.235600
12 _057_ _057_:13 49.371200
13 _057_ _057_:14 50.552800
14 _057_ _057_:15 12.121600
15 _057_ _057_:16 65.816300
16 _057_ _057_:17 22.148400
17 _057_ _057_:18 84.755500
18 _057_ _057_:19 56.088700
19 _057_ _057_:20 60.364000
20 _057_ _057_:21 9.007000
21 _057_ _057_:22 83.049600
22 _057_ _057_:23 15.235700
23 _057_ _057_:24 12.601900
24 _057_ _057_:25 63.916200
25 _057_ _057_:26 58.115700
26 _057_ _057_:27 56.722500
27 _057_ _057_:28 26.101800
28 _057_ _057_:29 53.568500
29 _057_ _057_:30 19.688500
30 _057_ _057_:31 28.993200
31 _057_ _057_:32 6.987600
32 _057_ _057_:33 48.465900
33 _057_ _057_:34 77.624600
34 _057_ _057_:35 73.211700
35 _057_ _057_:36 71.201400
36 _057_ _057_:37 20.128800
37 _057_ _057_:38 58.567400
38 _057_ _057_:39 57.607700
39 _057_ _057_:40 57.186700
40 _057_ _057_:41 58.021500
41 _057_ _057_:42 57.328800
42 _057_ _057_:43 59.241500
43 _057_ _057_:44 60.039700
44 _057_ _057_:45 57.182400
45 _057_ _057_:46 64.184900
46 _057_ _057_:47 64.058000
47 _057_ _057_:48 65.293500
48 _057_ _057_:49 65.869500
49 _057_ _296_:B 0.000000
50 _057_ _293_:B 0.000000
51 _057_ _291_:B 0.000000
52 _057_ _285_:B 0.000000
53 _057_ _283_:B 0.000000
54 _057_ _243_:A3 0.000000
55 _057_ _194_:B 0.000000
56 _057_ _190_:B 0.000000
57 _057_ _188_:A1 0.000000
58 _057_ _153_:A3 0.000000
59 _057_ _152_:ZN 0.000000
*END

*D_NET _058_ 2.488899
*CONN
*P _058_ B
*I _184_:A2 B
*I _156_:A1 B
*I _154_:ZN B
*CAP
1 _058_ 2.484271
2 _058_ tx_state[2] 0.004628
*RES
1 _058_ _058_:2 33.247500
2 _058_ _058_:3 38.049700
3 _058_ _058_:4 37.142000
4 _058_ _058_:5 32.193700
5 _058_ _058_:6 12.674800
6 _058_ _058_:7 27.866100
7 _058_ _184_:A2 0.000000
8 _058_ _156_:A1 0.000000
9 _058_ _154_:ZN 0.000000
*END

*D_NET _060_ 1.210312
*CONN
*P _060_ B
*I _161_:A1 B
*I _157_:ZN B
*CAP
1 _060_ 1.210312
*RES
1 _060_ _060_:2 31.360100
2 _060_ _060_:3 9.396600
3 _060_ _060_:4 30.193200
4 _060_ _060_:5 10.563000
5 _060_ _161_:A1 0.000000
6 _060_ _157_:ZN 0.000000
*END

*D_NET _061_ 7.088937
*CONN
*P _061_ B
*I _197_:A2 B
*I _160_:A2 B
*I _158_:ZN B
*CAP
1 _061_ 7.022016
2 _061_ _077_ 0.009255
3 _061_ _087_ 0.004628
4 _061_ int_rst_n 0.009255
5 _061_ next_valid 0.004628
6 _061_ tx_bitidx[0] 0.003801
7 _061_ tx_bitidx[2] 0.008429
8 _061_ tx_state[0] 0.013057
9 _061_ tx_state[3] 0.013868
*RES
1 _061_ _061_:2 32.278800
2 _061_ _061_:3 35.901000
3 _061_ _061_:4 36.025600
4 _061_ _061_:5 33.662000
5 _061_ _061_:6 31.872300
6 _061_ _061_:7 16.765700
7 _061_ _061_:8 14.402900
8 _061_ _061_:9 32.056700
9 _061_ _061_:10 33.389300
10 _061_ _061_:11 30.724100
11 _061_ _061_:12 29.391600
12 _061_ _197_:A2 0.000000
13 _061_ _160_:A2 0.000000
14 _061_ _158_:ZN 0.000000
*END

*D_NET _063_ 1.637016
*CONN
*P _063_ B
*I _161_:A2 B
*I _160_:ZN B
*CAP
1 _063_ 1.618280
2 _063_ _076_ 0.004628
3 _063_ clknet_3_7__leaf_clk 0.005454
4 _063_ next_valid 0.004026
5 _063_ tx_state[3] 0.004628
*RES
1 _063_ _063_:2 24.889600
2 _063_ _063_:3 16.354100
3 _063_ _063_:4 6.115500
4 _063_ _063_:5 6.837700
5 _063_ _063_:6 15.041000
6 _063_ _063_:7 14.649700
7 _063_ _161_:A2 0.000000
8 _063_ _160_:ZN 0.000000
*END

*D_NET _064_ 1.545443
*CONN
*P _064_ B
*I _166_:A1 B
*I _164_:ZN B
*CAP
1 _064_ 1.535361
2 _064_ _065_ 0.004628
3 _064_ tx_state[0] 0.005454
*RES
1 _064_ _064_:2 27.029100
2 _064_ _064_:3 14.897300
3 _064_ _064_:4 15.574000
4 _064_ _064_:5 26.107700
5 _064_ _166_:A1 0.000000
6 _064_ _164_:ZN 0.000000
*END

*D_NET _065_ 3.058997
*CONN
*P _065_ B
*I _255_:A1 B
*I _166_:B B
*I _165_:ZN B
*CAP
1 _065_ 3.045113
2 _065_ _120_ 0.004628
3 _065_ enc_line_valid 0.004628
4 _065_ txdm 0.004628
*RES
1 _065_ _065_:2 6.621700
2 _065_ _065_:3 50.074700
3 _065_ _065_:4 38.058500
4 _065_ _065_:5 20.020000
5 _065_ _065_:6 27.796000
6 _065_ _065_:7 21.251200
7 _065_ _065_:8 20.135200
8 _065_ _255_:A1 0.000000
9 _065_ _166_:B 0.000000
10 _065_ _165_:ZN 0.000000
*END

*D_NET _066_ 1.653593
*CONN
*P _066_ B
*I _171_:A1 B
*I _170_:ZN B
*CAP
1 _066_ 1.620372
2 _066_ clknet_0_clk 0.018511
3 _066_ dec_line_valid 0.004628
4 _066_ int_rst_n 0.004628
5 _066_ line_state[0] 0.005454
*RES
1 _066_ _066_:2 15.337000
2 _066_ _066_:3 26.787200
3 _066_ _066_:4 26.251900
4 _066_ _066_:5 15.862900
5 _066_ _171_:A1 0.000000
6 _066_ _170_:ZN 0.000000
*END

*D_NET _067_ 1.486659
*CONN
*P _067_ B
*I _174_:I B
*I _173_:ZN B
*CAP
1 _067_ 1.472775
2 _067_ _085_ 0.004628
3 _067_ _088_ 0.004628
4 _067_ clknet_0_clk 0.004628
*RES
1 _067_ _067_:2 19.333300
2 _067_ _067_:3 19.686400
3 _067_ _067_:4 10.941900
4 _067_ _067_:5 15.475100
5 _067_ _067_:6 10.739700
6 _067_ _067_:7 7.376800
7 _067_ _174_:I 0.000000
8 _067_ _173_:ZN 0.000000
*END

*D_NET _068_ 3.820361
*CONN
*P _068_ B
*I _294_:A1 B
*I _180_:I0 B
*I _175_:ZN B
*CAP
1 _068_ 3.798296
2 _068_ _078_ 0.010082
3 _068_ clknet_3_5__leaf_clk 0.007355
4 _068_ tx_bitidx[1] 0.004628
*RES
1 _068_ _068_:2 51.657300
2 _068_ _068_:3 66.013800
3 _068_ _068_:4 26.424000
4 _068_ _068_:5 27.724700
5 _068_ _068_:6 24.378000
6 _068_ _068_:7 25.902400
7 _068_ _068_:8 39.610500
8 _068_ _068_:9 42.029300
9 _068_ _294_:A1 0.000000
10 _068_ _180_:I0 0.000000
11 _068_ _175_:ZN 0.000000
*END

*D_NET _069_ 3.631159
*CONN
*P _069_ B
*I _244_:A1 B
*I _180_:I1 B
*I _176_:ZN B
*CAP
1 _069_ 3.611203
2 _069_ _072_ 0.001445
3 _069_ _078_ 0.004628
4 _069_ _117_ 0.004628
5 _069_ tx_bitidx[1] 0.009255
*RES
1 _069_ _069_:2 37.772500
2 _069_ _069_:3 27.703800
3 _069_ _069_:4 33.533100
4 _069_ _069_:5 38.611200
5 _069_ _069_:6 37.912000
6 _069_ _069_:7 42.179900
7 _069_ _069_:8 26.036400
8 _069_ _069_:9 27.200200
9 _069_ _244_:A1 0.000000
10 _069_ _180_:I1 0.000000
11 _069_ _176_:ZN 0.000000
*END

*D_NET _070_ 3.109778
*CONN
*P _070_ B
*I _192_:A1 B
*I _180_:I2 B
*I _177_:ZN B
*CAP
1 _070_ 3.105150
2 _070_ _080_ 0.004628
*RES
1 _070_ _070_:2 45.918100
2 _070_ _070_:3 45.871100
3 _070_ _070_:4 21.597700
4 _070_ _070_:5 36.270300
5 _070_ _070_:6 30.807400
6 _070_ _070_:7 21.718200
7 _070_ _070_:8 31.156000
8 _070_ _070_:9 37.127700
9 _070_ _192_:A1 0.000000
10 _070_ _180_:I2 0.000000
11 _070_ _177_:ZN 0.000000
*END

*D_NET _071_ 3.505336
*CONN
*P _071_ B
*I _286_:A1 B
*I _180_:I3 B
*I _178_:ZN B
*CAP
1 _071_ 3.489800
2 _071_ _078_ 0.005454
3 _071_ _137_ 0.004628
4 _071_ cur_byte[5] 0.005454
*RES
1 _071_ _071_:2 49.611500
2 _071_ _071_:3 43.904100
3 _071_ _071_:4 24.830900
4 _071_ _071_:5 33.977800
5 _071_ _071_:6 28.735100
6 _071_ _071_:7 21.231000
7 _071_ _071_:8 32.226600
8 _071_ _071_:9 37.474100
9 _071_ _286_:A1 0.000000
10 _071_ _180_:I3 0.000000
11 _071_ _178_:ZN 0.000000
*END

*D_NET _072_ 4.870481
*CONN
*P _072_ B
*I _226_:A1 B
*I _180_:S1 B
*I _179_:ZN B
*CAP
1 _072_ 4.827505
2 _072_ _075_ 0.006363
3 _072_ _078_ 0.005454
4 _072_ _106_ 0.000826
5 _072_ _117_ 0.004628
6 _072_ stuff_in_ready 0.003801
7 _072_ tx_bitidx[0] 0.001445
8 _072_ tx_bitidx[1] 0.008429
9 _072_ tx_bitidx[2] 0.012030
*RES
1 _072_ _072_:2 53.672400
2 _072_ _072_:3 43.712600
3 _072_ _072_:4 44.463900
4 _072_ _072_:5 4.412900
5 _072_ _072_:6 54.104300
6 _072_ _072_:7 58.376700
7 _072_ _072_:8 58.200300
8 _072_ _072_:9 13.289500
9 _072_ _072_:10 46.968300
10 _072_ _072_:11 46.758600
11 _072_ _226_:A1 0.000000
12 _072_ _180_:S1 0.000000
13 _072_ _179_:ZN 0.000000
*END

*D_NET _073_ 1.681666
*CONN
*P _073_ B
*I _183_:A2 B
*I _180_:Z B
*CAP
1 _073_ 1.659777
2 _073_ _117_ 0.004628
3 _073_ stuffer_in_bit 0.004297
4 _073_ tx_bitidx[0] 0.000044
5 _073_ tx_bitidx[2] 0.012920
*RES
1 _073_ _073_:2 16.094800
2 _073_ _073_:3 25.766100
3 _073_ _073_:4 15.336100
4 _073_ _073_:5 26.527800
5 _073_ _183_:A2 0.000000
6 _073_ _180_:Z 0.000000
*END

*D_NET _074_ 1.948602
*CONN
*P _074_ B
*I _182_:A2 B
*I _181_:Z B
*CAP
1 _074_ 1.937419
2 _074_ _078_ 0.001942
3 _074_ _142_ 0.004628
4 _074_ clknet_3_5__leaf_clk 0.004613
*RES
1 _074_ _074_:2 24.724900
2 _074_ _074_:3 18.190500
3 _074_ _074_:4 25.280000
4 _074_ _074_:5 17.636500
5 _074_ _182_:A2 0.000000
6 _074_ _181_:Z 0.000000
*END

*D_NET _075_ 2.665203
*CONN
*P _075_ B
*I _183_:B B
*I _182_:ZN B
*CAP
1 _075_ 2.655009
2 _075_ _117_ 0.004628
3 _075_ clknet_3_5__leaf_clk 0.000465
4 _075_ tx_bitidx[0] 0.005101
*RES
1 _075_ _075_:2 18.447100
2 _075_ _075_:3 19.782300
3 _075_ _075_:4 25.128200
4 _075_ _075_:5 13.423300
5 _075_ _075_:6 13.112200
6 _075_ _183_:B 0.000000
7 _075_ _182_:ZN 0.000000
*END

*D_NET _076_ 6.501567
*CONN
*P _076_ B
*I _222_:B B
*I _187_:B B
*I _186_:Z B
*CAP
1 _076_ 6.462319
2 _076_ _077_ 0.006853
3 _076_ _103_ 0.004628
4 _076_ stuff_in_ready 0.004628
5 _076_ tx_state[0] 0.004628
6 _076_ tx_state[3] 0.018511
*RES
1 _076_ _076_:2 14.628800
2 _076_ _076_:3 16.684900
3 _076_ _076_:4 19.046500
4 _076_ _076_:5 21.309200
5 _076_ _076_:6 36.195800
6 _076_ _076_:7 22.515200
7 _076_ _076_:8 37.087700
8 _076_ _076_:9 20.386700
9 _076_ _076_:10 18.292400
10 _076_ _076_:11 16.245500
11 _076_ _076_:12 52.740800
12 _076_ _076_:13 55.526300
13 _076_ _076_:14 53.286700
14 _076_ _076_:15 54.905600
15 _076_ _222_:B 0.000000
16 _076_ _187_:B 0.000000
17 _076_ _186_:Z 0.000000
*END

*D_NET _077_ 22.587218
*CONN
*P _077_ B
*I _190_:C B
*I _194_:C B
*I _229_:A2 B
*I _243_:A4 B
*I _261_:A2 B
*I _283_:C B
*I _285_:C B
*I _291_:C B
*I _293_:C B
*I _296_:C B
*I _188_:A2 B
*I _187_:ZN B
*CAP
1 _077_ 22.396924
2 _077_ _080_ 0.008429
3 _077_ _083_ 0.014710
4 _077_ _108_ 0.006280
5 _077_ _117_ 0.003801
6 _077_ _125_ 0.002450
7 _077_ _136_ 0.010468
8 _077_ _137_ 0.003801
9 _077_ _141_ 0.003801
10 _077_ _142_ 0.010793
11 _077_ clknet_0_clk 0.009255
12 _077_ clknet_3_5__leaf_clk 0.004628
13 _077_ int_rst_n 0.005163
14 _077_ next_byte[2] 0.009255
15 _077_ next_byte[3] 0.006280
16 _077_ next_byte[4] 0.006280
17 _077_ next_byte[7] 0.046277
18 _077_ next_valid 0.020661
19 _077_ tx_state[3] 0.017962
*RES
1 _077_ _077_:2 15.459900
2 _077_ _077_:3 11.772700
3 _077_ _077_:4 37.001200
4 _077_ _077_:5 32.977500
5 _077_ _077_:6 12.840500
6 _077_ _077_:7 20.534200
7 _077_ _077_:8 16.287800
8 _077_ _077_:9 16.854800
9 _077_ _077_:10 10.772500
10 _077_ _077_:11 40.971900
11 _077_ _077_:12 14.644300
12 _077_ _077_:13 41.376200
13 _077_ _077_:14 44.787400
14 _077_ _077_:15 15.637900
15 _077_ _077_:16 55.738500
16 _077_ _077_:17 16.034200
17 _077_ _077_:18 41.217000
18 _077_ _077_:19 15.643500
19 _077_ _077_:20 41.098900
20 _077_ _077_:21 44.559800
21 _077_ _077_:22 55.510200
22 _077_ _077_:23 12.303300
23 _077_ _077_:24 34.998200
24 _077_ _077_:25 13.898300
25 _077_ _077_:26 12.545100
26 _077_ _077_:27 20.218000
27 _077_ _077_:28 51.461300
28 _077_ _077_:29 36.817700
29 _077_ _077_:30 37.135100
30 _077_ _077_:31 36.933600
31 _077_ _077_:32 51.207600
32 _077_ _077_:33 19.904000
33 _077_ _077_:34 12.688500
34 _077_ _077_:35 36.657400
35 _077_ _077_:36 49.095200
36 _077_ _077_:37 11.417900
37 _077_ _077_:38 48.882000
38 _077_ _077_:39 38.494300
39 _077_ _077_:40 44.684100
40 _077_ _077_:41 44.226700
41 _077_ _077_:42 43.806600
42 _077_ _077_:43 43.489800
43 _077_ _077_:44 38.879000
44 _077_ _077_:45 38.507700
45 _077_ _077_:46 38.560400
46 _077_ _077_:47 38.721900
47 _077_ _077_:48 39.136100
48 _077_ _077_:49 38.500600
49 _077_ _077_:50 38.581600
50 _077_ _077_:51 38.686700
51 _077_ _077_:52 42.645600
52 _077_ _077_:53 42.546000
53 _077_ _077_:54 42.483200
54 _077_ _077_:55 42.820100
55 _077_ _190_:C 0.000000
56 _077_ _194_:C 0.000000
57 _077_ _229_:A2 0.000000
58 _077_ _243_:A4 0.000000
59 _077_ _261_:A2 0.000000
60 _077_ _283_:C 0.000000
61 _077_ _285_:C 0.000000
62 _077_ _291_:C 0.000000
63 _077_ _293_:C 0.000000
64 _077_ _296_:C 0.000000
65 _077_ _188_:A2 0.000000
66 _077_ _187_:ZN 0.000000
*END

*D_NET _078_ 19.902780
*CONN
*P _078_ B
*I _297_:A2 B
*I _294_:A2 B
*I _292_:A2 B
*I _286_:A2 B
*I _284_:A2 B
*I _244_:A2 B
*I _195_:A2 B
*I _192_:A2 B
*I _188_:Z B
*CAP
1 _078_ 19.776637
2 _078_ _080_ 0.023280
3 _078_ _083_ 0.009255
4 _078_ _117_ 0.004628
5 _078_ _135_ 0.010082
6 _078_ _137_ 0.004628
7 _078_ _140_ 0.005454
8 _078_ _141_ 0.009255
9 _078_ _142_ 0.023139
10 _078_ _143_ 0.006280
11 _078_ _144_ 0.004628
12 _078_ clknet_3_5__leaf_clk 0.013986
13 _078_ tx_bitidx[1] 0.011528
*RES
1 _078_ _078_:2 60.445900
2 _078_ _078_:3 59.302800
3 _078_ _078_:4 54.675300
4 _078_ _078_:5 53.310100
5 _078_ _078_:6 49.943700
6 _078_ _078_:7 59.894100
7 _078_ _078_:8 80.724700
8 _078_ _078_:9 44.543500
9 _078_ _078_:10 36.415000
10 _078_ _078_:11 19.302900
11 _078_ _078_:12 42.395100
12 _078_ _078_:13 30.617600
13 _078_ _078_:14 25.041000
14 _078_ _078_:15 24.714900
15 _078_ _078_:16 57.102500
16 _078_ _078_:17 78.578400
17 _078_ _078_:18 48.273400
18 _078_ _078_:19 39.755500
19 _078_ _078_:20 38.350100
20 _078_ _078_:21 31.422000
21 _078_ _078_:22 75.009200
22 _078_ _078_:23 46.738000
23 _078_ _078_:24 65.035600
24 _078_ _078_:25 23.331200
25 _078_ _078_:26 28.532100
26 _078_ _078_:27 27.913700
27 _078_ _078_:28 43.446200
28 _078_ _078_:29 22.742400
29 _078_ _078_:30 53.039100
30 _078_ _078_:31 72.907600
31 _078_ _078_:32 62.711800
32 _078_ _078_:33 34.959500
33 _078_ _078_:34 23.424900
34 _078_ _078_:35 25.734100
35 _078_ _078_:36 25.503700
36 _078_ _078_:37 27.552300
37 _078_ _297_:A2 0.000000
38 _078_ _294_:A2 0.000000
39 _078_ _292_:A2 0.000000
40 _078_ _286_:A2 0.000000
41 _078_ _284_:A2 0.000000
42 _078_ _244_:A2 0.000000
43 _078_ _195_:A2 0.000000
44 _078_ _192_:A2 0.000000
45 _078_ _188_:Z 0.000000
*END

*D_NET _080_ 3.741134
*CONN
*P _080_ B
*I _192_:B B
*I _190_:ZN B
*CAP
1 _080_ 3.691883
2 _080_ clknet_3_5__leaf_clk 0.041649
3 _080_ next_byte[7] 0.003801
4 _080_ tx_state[3] 0.003801
*RES
1 _080_ _080_:2 29.340700
2 _080_ _080_:3 36.754600
3 _080_ _080_:4 30.251400
4 _080_ _080_:5 37.110200
5 _080_ _080_:6 11.561200
6 _080_ _080_:7 14.235800
7 _080_ _080_:8 16.524300
8 _080_ _080_:9 21.154600
9 _080_ _080_:10 18.832800
10 _080_ _080_:11 4.546200
11 _080_ _080_:12 6.693200
12 _080_ _080_:13 9.081000
13 _080_ _080_:14 18.896700
14 _080_ _080_:15 16.324700
15 _080_ _192_:B 0.000000
16 _080_ _190_:ZN 0.000000
*END

*D_NET _082_ 2.255048
*CONN
*P _082_ B
*I _195_:A1 B
*I _193_:ZN B
*CAP
1 _082_ 2.241991
2 _082_ _083_ 0.008429
3 _082_ _140_ 0.004628
*RES
1 _082_ _082_:2 48.136800
2 _082_ _082_:3 10.170000
3 _082_ _082_:4 18.389300
4 _082_ _082_:5 33.799700
5 _082_ _082_:6 27.693000
6 _082_ _082_:7 32.197800
7 _082_ _195_:A1 0.000000
8 _082_ _193_:ZN 0.000000
*END

*D_NET _083_ 5.407988
*CONN
*P _083_ B
*I _195_:B B
*I _194_:ZN B
*CAP
1 _083_ 5.369149
2 _083_ _140_ 0.003801
3 _083_ clknet_3_5__leaf_clk 0.009255
4 _083_ cur_byte[6] 0.004628
5 _083_ next_byte[0] 0.003801
6 _083_ next_byte[4] 0.003801
7 _083_ tx_state[3] 0.013553
*RES
1 _083_ _083_:2 36.270800
2 _083_ _083_:3 32.989300
3 _083_ _083_:4 36.960800
4 _083_ _083_:5 33.106400
5 _083_ _083_:6 13.156800
6 _083_ _083_:7 13.982200
7 _083_ _083_:8 15.173800
8 _083_ _083_:9 17.557100
9 _083_ _083_:10 16.365400
10 _083_ _083_:11 9.420100
11 _083_ _083_:12 10.650600
12 _083_ _083_:13 11.897700
13 _083_ _083_:14 16.819400
14 _083_ _083_:15 15.536300
15 _083_ _195_:B 0.000000
16 _083_ _194_:ZN 0.000000
*END

*D_NET _084_ 1.953823
*CONN
*P _084_ B
*I _197_:B B
*I _196_:ZN B
*CAP
1 _084_ 1.953823
*RES
1 _084_ _084_:2 32.268400
2 _084_ _084_:3 12.201100
3 _084_ _084_:4 31.077300
4 _084_ _084_:5 8.923600
5 _084_ _084_:6 10.893300
6 _084_ _084_:7 10.095700
7 _084_ _084_:8 33.018000
8 _084_ _084_:9 30.804500
9 _084_ _197_:B 0.000000
10 _084_ _196_:ZN 0.000000
*END

*D_NET _085_ 11.693290
*CONN
*P _085_ B
*I _257_:A2 B
*I _218_:A2 B
*I _215_:A2 B
*I _212_:A2 B
*I _209_:A2 B
*I _206_:A2 B
*I _203_:A2 B
*I _198_:A2 B
*I _197_:ZN B
*CAP
1 _085_ 11.602589
2 _085_ _088_ 0.018511
3 _085_ _101_ 0.004628
4 _085_ _123_ 0.008099
5 _085_ clk 0.009255
6 _085_ clknet_0_clk 0.004628
7 _085_ clknet_3_4__leaf_clk 0.018511
8 _085_ line_state[1] 0.009255
9 _085_ rxdp 0.009255
10 _085_ tx_state[0] 0.004758
11 _085_ tx_state[3] 0.003801
*RES
1 _085_ _085_:2 49.437900
2 _085_ _085_:3 45.764300
3 _085_ _085_:4 16.856400
4 _085_ _085_:5 32.104500
5 _085_ _085_:6 42.061800
6 _085_ _085_:7 14.360300
7 _085_ _085_:8 40.836500
8 _085_ _085_:9 26.974900
9 _085_ _085_:10 7.781100
10 _085_ _085_:11 20.475900
11 _085_ _085_:12 11.263900
12 _085_ _085_:13 23.259700
13 _085_ _085_:14 9.428800
14 _085_ _085_:15 38.392900
15 _085_ _085_:16 37.073500
16 _085_ _085_:17 35.675500
17 _085_ _085_:18 42.137500
18 _085_ _085_:19 42.540700
19 _085_ _085_:20 37.737500
20 _085_ _085_:21 38.795000
21 _085_ _085_:22 39.290900
22 _085_ _085_:23 37.415800
23 _085_ _085_:24 43.402000
24 _085_ _085_:25 42.949400
25 _085_ _257_:A2 0.000000
26 _085_ _218_:A2 0.000000
27 _085_ _215_:A2 0.000000
28 _085_ _212_:A2 0.000000
29 _085_ _209_:A2 0.000000
30 _085_ _206_:A2 0.000000
31 _085_ _203_:A2 0.000000
32 _085_ _198_:A2 0.000000
33 _085_ _197_:ZN 0.000000
*END

*D_NET _086_ 2.846039
*CONN
*P _086_ B
*I _202_:A1 B
*I _198_:ZN B
*CAP
1 _086_ 2.808190
2 _086_ _088_ 0.004628
3 _086_ _089_ 0.004628
4 _086_ _097_ 0.004628
5 _086_ clk 0.004628
6 _086_ clknet_3_4__leaf_clk 0.004628
7 _086_ line_state[1] 0.000826
8 _086_ next_byte[0] 0.009255
9 _086_ rxdp 0.004628
*RES
1 _086_ _086_:2 22.441000
2 _086_ _086_:3 22.447700
3 _086_ _086_:4 14.638600
4 _086_ _086_:5 15.987300
5 _086_ _086_:6 14.439900
6 _086_ _202_:A1 0.000000
7 _086_ _198_:ZN 0.000000
*END

*D_NET _087_ 2.156574
*CONN
*P _087_ B
*I _200_:B B
*I _199_:Z B
*CAP
1 _087_ 2.151946
2 _087_ int_rst_n 0.004628
*RES
1 _087_ _087_:2 50.775500
2 _087_ _087_:3 21.931200
3 _087_ _087_:4 35.405300
4 _087_ _087_:5 11.844800
5 _087_ _087_:6 39.545000
6 _087_ _087_:7 20.690500
7 _087_ _200_:B 0.000000
8 _087_ _199_:Z 0.000000
*END

*D_NET _088_ 16.267742
*CONN
*P _088_ B
*I _262_:A1 B
*I _258_:A2 B
*I _219_:A2 B
*I _216_:A2 B
*I _213_:A2 B
*I _210_:A2 B
*I _207_:A2 B
*I _204_:A2 B
*I _201_:A2 B
*I _200_:ZN B
*CAP
1 _088_ 16.161303
2 _088_ _089_ 0.004628
3 _088_ _091_ 0.004628
4 _088_ _094_ 0.004628
5 _088_ _095_ 0.004628
6 _088_ _097_ 0.004628
7 _088_ _099_ 0.013883
8 _088_ _124_ 0.004628
9 _088_ clknet_0_clk 0.009255
10 _088_ clknet_3_4__leaf_clk 0.018511
11 _088_ clknet_3_5__leaf_clk 0.004628
12 _088_ int_rst_n 0.009255
13 _088_ next_byte[0] 0.004628
14 _088_ next_byte[1] 0.009255
15 _088_ next_byte[2] 0.004628
16 _088_ tx_state[3] 0.004628
*RES
1 _088_ _088_:2 23.788300
2 _088_ _088_:3 27.038400
3 _088_ _088_:4 32.798400
4 _088_ _088_:5 7.262000
5 _088_ _088_:6 45.818100
6 _088_ _088_:7 19.218300
7 _088_ _088_:8 46.564800
8 _088_ _088_:9 42.830400
9 _088_ _088_:10 12.612600
10 _088_ _088_:11 29.370000
11 _088_ _088_:12 26.023000
12 _088_ _088_:13 9.992800
13 _088_ _088_:14 39.368700
14 _088_ _088_:15 8.101100
15 _088_ _088_:16 22.557100
16 _088_ _088_:17 36.252700
17 _088_ _088_:18 50.092300
18 _088_ _088_:19 49.368800
19 _088_ _088_:20 33.750100
20 _088_ _088_:21 37.552400
21 _088_ _088_:22 37.517400
22 _088_ _088_:23 37.533300
23 _088_ _088_:24 37.600100
24 _088_ _088_:25 33.966400
25 _088_ _088_:26 34.595300
26 _088_ _088_:27 34.248700
27 _088_ _088_:28 37.936200
28 _088_ _088_:29 37.681600
29 _088_ _262_:A1 0.000000
30 _088_ _258_:A2 0.000000
31 _088_ _219_:A2 0.000000
32 _088_ _216_:A2 0.000000
33 _088_ _213_:A2 0.000000
34 _088_ _210_:A2 0.000000
35 _088_ _207_:A2 0.000000
36 _088_ _204_:A2 0.000000
37 _088_ _201_:A2 0.000000
38 _088_ _200_:ZN 0.000000
*END

*D_NET _089_ 1.786556
*CONN
*P _089_ B
*I _202_:A2 B
*I _201_:ZN B
*CAP
1 _089_ 1.778127
2 _089_ next_byte[0] 0.004628
3 _089_ next_byte[6] 0.003801
*RES
1 _089_ _089_:2 16.184200
2 _089_ _089_:3 22.022300
3 _089_ _089_:4 26.081300
4 _089_ _089_:5 8.048300
5 _089_ _089_:6 12.402300
6 _089_ _202_:A2 0.000000
7 _089_ _201_:ZN 0.000000
*END

*D_NET _090_ 1.858804
*CONN
*P _090_ B
*I _205_:A1 B
*I _203_:ZN B
*CAP
1 _090_ 1.854176
2 _090_ clknet_3_4__leaf_clk 0.004628
*RES
1 _090_ _090_:2 16.554100
2 _090_ _090_:3 25.293800
3 _090_ _090_:4 8.490700
4 _090_ _090_:5 18.638300
5 _090_ _090_:6 15.806100
6 _090_ _205_:A1 0.000000
7 _090_ _203_:ZN 0.000000
*END

*D_NET _091_ 1.720138
*CONN
*P _091_ B
*I _205_:A2 B
*I _204_:ZN B
*CAP
1 _091_ 1.713008
2 _091_ next_byte[5] 0.007130
*RES
1 _091_ _091_:2 20.454500
2 _091_ _091_:3 16.491100
3 _091_ _091_:4 20.969200
4 _091_ _091_:5 11.092400
5 _091_ _091_:6 15.607100
6 _091_ _205_:A2 0.000000
7 _091_ _204_:ZN 0.000000
*END

*D_NET _092_ 2.257153
*CONN
*P _092_ B
*I _208_:A1 B
*I _206_:ZN B
*CAP
1 _092_ 2.252525
2 _092_ next_byte[0] 0.004628
*RES
1 _092_ _092_:2 21.681800
2 _092_ _092_:3 21.623300
3 _092_ _092_:4 14.075100
4 _092_ _092_:5 16.047200
5 _092_ _092_:6 13.640500
6 _092_ _208_:A1 0.000000
7 _092_ _206_:ZN 0.000000
*END

*D_NET _093_ 1.777795
*CONN
*P _093_ B
*I _208_:A2 B
*I _207_:ZN B
*CAP
1 _093_ 1.776449
2 _093_ next_byte[4] 0.001346
*RES
1 _093_ _093_:2 25.548100
2 _093_ _093_:3 10.409000
3 _093_ _093_:4 15.554400
4 _093_ _093_:5 15.425700
5 _093_ _093_:6 17.827500
6 _093_ _208_:A2 0.000000
7 _093_ _207_:ZN 0.000000
*END

*D_NET _094_ 2.633830
*CONN
*P _094_ B
*I _211_:A1 B
*I _209_:ZN B
*CAP
1 _094_ 2.627549
2 _094_ _095_ 0.004628
3 _094_ clknet_3_4__leaf_clk 0.001653
*RES
1 _094_ _094_:2 22.761700
2 _094_ _094_:3 21.542200
3 _094_ _094_:4 15.344100
4 _094_ _094_:5 15.578900
5 _094_ _094_:6 13.672200
6 _094_ _211_:A1 0.000000
7 _094_ _209_:ZN 0.000000
*END

*D_NET _095_ 1.667283
*CONN
*P _095_ B
*I _211_:A2 B
*I _210_:ZN B
*CAP
1 _095_ 1.658854
2 _095_ clknet_3_4__leaf_clk 0.004628
3 _095_ next_byte[3] 0.003801
*RES
1 _095_ _095_:2 19.887400
2 _095_ _095_:3 17.235100
3 _095_ _095_:4 20.801900
4 _095_ _095_:5 10.481200
5 _095_ _095_:6 15.809900
6 _095_ _211_:A2 0.000000
7 _095_ _210_:ZN 0.000000
*END

*D_NET _096_ 1.856135
*CONN
*P _096_ B
*I _214_:A1 B
*I _212_:ZN B
*CAP
1 _096_ 1.832996
2 _096_ _101_ 0.009255
3 _096_ clknet_3_4__leaf_clk 0.004628
4 _096_ line_state[1] 0.004628
5 _096_ rxdp 0.004628
*RES
1 _096_ _096_:2 16.046500
2 _096_ _096_:3 25.750400
3 _096_ _096_:4 7.887800
4 _096_ _096_:5 18.922400
5 _096_ _096_:6 16.131400
6 _096_ _214_:A1 0.000000
7 _096_ _212_:ZN 0.000000
*END

*D_NET _097_ 2.368307
*CONN
*P _097_ B
*I _214_:A2 B
*I _213_:ZN B
*CAP
1 _097_ 2.359878
2 _097_ clk 0.004628
3 _097_ next_byte[2] 0.003801
*RES
1 _097_ _097_:2 18.781000
2 _097_ _097_:3 11.595400
3 _097_ _097_:4 24.735900
4 _097_ _097_:5 15.557200
5 _097_ _097_:6 16.980600
6 _097_ _214_:A2 0.000000
7 _097_ _213_:ZN 0.000000
*END

*D_NET _098_ 1.864223
*CONN
*P _098_ B
*I _217_:A1 B
*I _215_:ZN B
*CAP
1 _098_ 1.854967
2 _098_ _099_ 0.004628
3 _098_ clknet_3_4__leaf_clk 0.004628
*RES
1 _098_ _098_:2 16.554100
2 _098_ _098_:3 25.293800
3 _098_ _098_:4 8.490700
4 _098_ _098_:5 18.638300
5 _098_ _098_:6 15.806100
6 _098_ _217_:A1 0.000000
7 _098_ _215_:ZN 0.000000
*END

*D_NET _099_ 2.270236
*CONN
*P _099_ B
*I _217_:A2 B
*I _216_:ZN B
*CAP
1 _099_ 2.252551
2 _099_ _123_ 0.004628
3 _099_ clknet_0_clk 0.004628
4 _099_ clknet_3_4__leaf_clk 0.004628
5 _099_ next_byte[1] 0.003801
*RES
1 _099_ _099_:2 18.337700
2 _099_ _099_:3 11.087700
3 _099_ _099_:4 24.898800
4 _099_ _099_:5 15.735900
5 _099_ _099_:6 17.050000
6 _099_ _217_:A2 0.000000
7 _099_ _216_:ZN 0.000000
*END

*D_NET _100_ 1.855033
*CONN
*P _100_ B
*I _220_:A1 B
*I _218_:ZN B
*CAP
1 _100_ 1.836521
2 _100_ clk 0.004628
3 _100_ clknet_3_4__leaf_clk 0.004628
4 _100_ line_state[1] 0.004628
5 _100_ rxdp 0.004628
*RES
1 _100_ _100_:2 18.818300
2 _100_ _100_:3 17.166900
3 _100_ _100_:4 24.562700
4 _100_ _100_:5 10.021000
5 _100_ _100_:6 14.145700
6 _100_ _220_:A1 0.000000
7 _100_ _218_:ZN 0.000000
*END

*D_NET _101_ 1.957329
*CONN
*P _101_ B
*I _220_:A2 B
*I _219_:ZN B
*CAP
1 _101_ 1.945571
2 _101_ clk 0.004628
3 _101_ next_byte[0] 0.007130
*RES
1 _101_ _101_:2 24.082800
2 _101_ _101_:3 12.433800
3 _101_ _101_:4 17.974000
4 _101_ _101_:5 14.260900
5 _101_ _101_:6 16.911400
6 _101_ _220_:A2 0.000000
7 _101_ _219_:ZN 0.000000
*END

*D_NET _102_ 2.358000
*CONN
*P _102_ B
*I _230_:B B
*I _223_:A1 B
*I _221_:ZN B
*CAP
1 _102_ 2.342350
2 _102_ stuffer_in_bit 0.015650
*RES
1 _102_ _102_:2 28.015000
2 _102_ _102_:3 50.231900
3 _102_ _102_:4 49.713800
4 _102_ _102_:5 28.510900
5 _102_ _102_:6 12.356400
6 _102_ _102_:7 11.423600
7 _102_ _230_:B 0.000000
8 _102_ _223_:A1 0.000000
9 _102_ _221_:ZN 0.000000
*END

*D_NET _103_ 5.948922
*CONN
*P _103_ B
*I _230_:A2 B
*I _228_:A2 B
*I _225_:B B
*I _223_:A2 B
*I _222_:ZN B
*CAP
1 _103_ 5.911899
2 _103_ _105_ 0.004628
3 _103_ _106_ 0.018511
4 _103_ _108_ 0.004628
5 _103_ stuff_in_ready 0.004628
6 _103_ tx_state[3] 0.004628
*RES
1 _103_ _103_:2 54.509100
2 _103_ _103_:3 49.164200
3 _103_ _103_:4 41.657800
4 _103_ _103_:5 62.350000
5 _103_ _103_:6 30.169300
6 _103_ _103_:7 28.158900
7 _103_ _103_:8 28.212000
8 _103_ _103_:9 15.961500
9 _103_ _103_:10 16.461700
10 _103_ _103_:11 10.785400
11 _103_ _103_:12 24.231000
12 _103_ _103_:13 19.501600
13 _103_ _230_:A2 0.000000
14 _103_ _228_:A2 0.000000
15 _103_ _225_:B 0.000000
16 _103_ _223_:A2 0.000000
17 _103_ _222_:ZN 0.000000
*END

*D_NET _104_ 4.209433
*CONN
*P _104_ B
*I _231_:A2 B
*I _226_:A2 B
*I _223_:Z B
*CAP
1 _104_ 4.183319
2 _104_ tx_bitidx[0] 0.026114
*RES
1 _104_ _104_:2 59.976100
2 _104_ _104_:3 73.333200
3 _104_ _104_:4 28.071300
4 _104_ _104_:5 22.304800
5 _104_ _104_:6 38.629900
6 _104_ _104_:7 35.153200
7 _104_ _104_:8 2.520400
8 _104_ _104_:9 6.846500
9 _104_ _104_:10 10.685900
10 _104_ _104_:11 12.410200
11 _104_ _231_:A2 0.000000
12 _104_ _226_:A2 0.000000
13 _104_ _223_:Z 0.000000
*END

*D_NET _105_ 2.595836
*CONN
*P _105_ B
*I _228_:A1 B
*I _225_:A2 B
*I _224_:ZN B
*CAP
1 _105_ 2.566417
2 _105_ stuff_in_ready 0.023965
3 _105_ tx_bitidx[0] 0.003801
4 _105_ tx_bitidx[2] 0.001653
*RES
1 _105_ _105_:2 26.739500
2 _105_ _105_:3 20.675900
3 _105_ _105_:4 34.827800
4 _105_ _105_:5 24.935200
5 _105_ _105_:6 19.519300
6 _105_ _105_:7 24.592900
7 _105_ _105_:8 29.876800
8 _105_ _228_:A1 0.000000
9 _105_ _225_:A2 0.000000
10 _105_ _224_:ZN 0.000000
*END

*D_NET _106_ 2.786526
*CONN
*P _106_ B
*I _226_:B B
*I _225_:ZN B
*CAP
1 _106_ 2.777270
2 _106_ stuffer_in_bit 0.004628
3 _106_ tx_bitidx[0] 0.004628
*RES
1 _106_ _106_:2 39.670000
2 _106_ _106_:3 27.476400
3 _106_ _106_:4 40.627100
4 _106_ _106_:5 26.181300
5 _106_ _106_:6 33.726500
6 _106_ _106_:7 27.935200
7 _106_ _106_:8 33.574000
8 _106_ _106_:9 37.996600
9 _106_ _226_:B 0.000000
10 _106_ _225_:ZN 0.000000
*END

*D_NET _107_ 1.193937
*CONN
*P _107_ B
*I _228_:B B
*I _227_:ZN B
*CAP
1 _107_ 1.188542
2 _107_ stuff_in_ready 0.004628
3 _107_ tx_bitidx[2] 0.000767
*RES
1 _107_ _107_:2 20.865000
2 _107_ _107_:3 22.035100
3 _107_ _107_:4 19.431500
4 _107_ _107_:5 19.936400
5 _107_ _228_:B 0.000000
6 _107_ _227_:ZN 0.000000
*END

*D_NET _108_ 1.916270
*CONN
*P _108_ B
*I _229_:A3 B
*I _228_:ZN B
*CAP
1 _108_ 1.902387
2 _108_ stuff_in_ready 0.013883
*RES
1 _108_ _108_:2 21.533200
2 _108_ _108_:3 21.990200
3 _108_ _108_:4 11.416800
4 _108_ _108_:5 16.144000
5 _108_ _108_:6 8.647000
6 _108_ _108_:7 12.248500
7 _108_ _229_:A3 0.000000
8 _108_ _228_:ZN 0.000000
*END

*D_NET _109_ 1.638362
*CONN
*P _109_ B
*I _231_:A3 B
*I _230_:ZN B
*CAP
1 _109_ 1.632082
2 _109_ stuffer_in_bit 0.006280
*RES
1 _109_ _109_:2 27.724000
2 _109_ _109_:3 13.654800
3 _109_ _109_:4 16.997700
4 _109_ _109_:5 16.910400
5 _109_ _109_:6 10.432800
6 _109_ _109_:7 4.746500
7 _109_ _231_:A3 0.000000
8 _109_ _230_:ZN 0.000000
*END

*D_NET _110_ 7.646049
*CONN
*P _110_ B
*I _279_:A3 B
*I _237_:A2 B
*I _236_:A2 B
*I _235_:A2 B
*I _232_:Z B
*CAP
1 _110_ 7.537133
2 _110_ _111_ 0.008429
3 _110_ _113_ 0.004628
4 _110_ _114_ 0.008429
5 _110_ _133_ 0.004628
6 _110_ _134_ 0.013883
7 _110_ clknet_3_0__leaf_clk 0.013387
8 _110_ destuff_out_bit 0.013883
9 _110_ destuff_out_valid 0.009255
10 _110_ rx_bitcnt[0] 0.013883
11 _110_ rx_bitcnt[2] 0.013883
12 _110_ u_destuffer\/_05_ 0.004628
*RES
1 _110_ _110_:2 55.048300
2 _110_ _110_:3 53.102700
3 _110_ _110_:4 31.803800
4 _110_ _110_:5 36.230300
5 _110_ _110_:6 31.612300
6 _110_ _110_:7 26.222100
7 _110_ _110_:8 53.283500
8 _110_ _110_:9 40.757100
9 _110_ _110_:10 36.169400
10 _110_ _110_:11 53.505700
11 _110_ _110_:12 33.895700
12 _110_ _110_:13 33.384700
13 _110_ _279_:A3 0.000000
14 _110_ _237_:A2 0.000000
15 _110_ _236_:A2 0.000000
16 _110_ _235_:A2 0.000000
17 _110_ _232_:Z 0.000000
*END

*D_NET _111_ 21.192961
*CONN
*P _111_ B
*I _235_:B B
*I _241_:A1 B
*I _264_:A1 B
*I _266_:A1 B
*I _268_:A1 B
*I _270_:A1 B
*I _271_:A2 B
*I _273_:A1 B
*I _275_:A1 B
*I _280_:B B
*I _237_:A3 B
*I _233_:ZN B
*CAP
1 _111_ 20.977966
2 _111_ _114_ 0.008429
3 _111_ _116_ 0.004628
4 _111_ _126_ 0.004628
5 _111_ _127_ 0.004628
6 _111_ _128_ 0.004628
7 _111_ _130_ 0.004628
8 _111_ clknet_0_clk 0.004628
9 _111_ clknet_3_0__leaf_clk 0.037848
10 _111_ clknet_3_1__leaf_clk 0.010237
11 _111_ destuff_out_bit 0.004628
12 _111_ destuff_out_valid 0.023139
13 _111_ rx_bitcnt[2] 0.004628
14 _111_ rx_receiving 0.009255
15 _111_ rx_shift[4] 0.013883
16 _111_ rx_shift[5] 0.032394
17 _111_ rx_shift[6] 0.020474
18 _111_ rx_shift[7] 0.013883
19 _111_ u_destuffer\/_05_ 0.004628
20 _111_ u_destuffer\/ones[1] 0.003801
*RES
1 _111_ _111_:2 19.526400
2 _111_ _111_:3 22.615500
3 _111_ _111_:4 44.587100
4 _111_ _111_:5 23.088000
5 _111_ _111_:6 54.472600
6 _111_ _111_:7 48.248200
7 _111_ _111_:8 56.294200
8 _111_ _111_:9 50.607400
9 _111_ _111_:10 21.966900
10 _111_ _111_:11 44.585400
11 _111_ _111_:12 52.263500
12 _111_ _111_:13 48.835900
13 _111_ _111_:14 38.680200
14 _111_ _111_:15 33.261900
15 _111_ _111_:16 17.818500
16 _111_ _111_:17 52.834200
17 _111_ _111_:18 26.592400
18 _111_ _111_:19 40.994600
19 _111_ _111_:20 13.780800
20 _111_ _111_:21 27.789800
21 _111_ _111_:22 30.525300
22 _111_ _111_:23 41.667800
23 _111_ _111_:24 53.342500
24 _111_ _111_:25 36.367700
25 _111_ _111_:26 41.377200
26 _111_ _111_:27 48.000800
27 _111_ _111_:28 43.113700
28 _111_ _111_:29 41.718000
29 _111_ _111_:30 42.665900
30 _111_ _111_:31 45.300400
31 _111_ _111_:32 46.643100
32 _111_ _111_:33 43.974200
33 _111_ _235_:B 0.000000
34 _111_ _241_:A1 0.000000
35 _111_ _264_:A1 0.000000
36 _111_ _266_:A1 0.000000
37 _111_ _268_:A1 0.000000
38 _111_ _270_:A1 0.000000
39 _111_ _271_:A2 0.000000
40 _111_ _273_:A1 0.000000
41 _111_ _275_:A1 0.000000
42 _111_ _280_:B 0.000000
43 _111_ _237_:A3 0.000000
44 _111_ _233_:ZN 0.000000
*END

*D_NET _113_ 1.693574
*CONN
*P _113_ B
*I _236_:B B
*I _235_:ZN B
*CAP
1 _113_ 1.693574
*RES
1 _113_ _113_:2 24.609300
2 _113_ _113_:3 16.752900
3 _113_ _113_:4 15.499600
4 _113_ _113_:5 14.507900
5 _113_ _113_:6 6.334500
6 _113_ _113_:7 6.045700
7 _113_ _236_:B 0.000000
8 _113_ _235_:ZN 0.000000
*END

*D_NET _114_ 23.922498
*CONN
*P _114_ B
*I _260_:I B
*I _256_:S B
*I _249_:S B
*I _248_:S B
*I _247_:S B
*I _246_:S B
*I _245_:S B
*I _242_:S B
*I _238_:S B
*I _237_:ZN B
*CAP
1 _114_ 23.789928
2 _114_ _116_ 0.004628
3 _114_ clk 0.009675
4 _114_ clknet_3_0__leaf_clk 0.013883
5 _114_ clknet_3_1__leaf_clk 0.004628
6 _114_ destuff_out_bit 0.005454
7 _114_ line_state[0] 0.004628
8 _114_ rx_bitcnt[2] 0.008925
9 _114_ rx_receiving 0.004628
10 _114_ rx_shift[1] 0.005513
11 _114_ rx_shift[2] 0.008429
12 _114_ rx_shift[3] 0.004628
13 _114_ rx_shift[4] 0.008429
14 _114_ rx_shift[5] 0.004628
15 _114_ rx_shift[6] 0.004628
16 _114_ rx_shift[7] 0.013883
17 _114_ txdp 0.017519
18 _114_ u_destuffer\/ones[1] 0.008464
*RES
1 _114_ _114_:2 60.843800
2 _114_ _114_:3 58.452000
3 _114_ _114_:4 29.722100
4 _114_ _114_:5 61.085900
5 _114_ _114_:6 56.791300
6 _114_ _114_:7 46.094200
7 _114_ _114_:8 56.040500
8 _114_ _114_:9 55.615400
9 _114_ _114_:10 57.523100
10 _114_ _114_:11 62.531400
11 _114_ _114_:12 25.464900
12 _114_ _114_:13 21.006400
13 _114_ _114_:14 20.050800
14 _114_ _114_:15 51.593500
15 _114_ _114_:16 28.526800
16 _114_ _114_:17 58.449800
17 _114_ _114_:18 51.057400
18 _114_ _114_:19 50.247900
19 _114_ _114_:20 53.200200
20 _114_ _114_:21 24.618900
21 _114_ _114_:22 64.088800
22 _114_ _114_:23 56.779500
23 _114_ _114_:24 56.242000
24 _114_ _114_:25 55.331000
25 _114_ _114_:26 28.692300
26 _114_ _114_:27 48.071800
27 _114_ _114_:28 50.355000
28 _114_ _114_:29 61.816400
29 _114_ _114_:30 52.723300
30 _114_ _114_:31 24.077500
31 _114_ _114_:32 54.281300
32 _114_ _114_:33 30.228600
33 _114_ _114_:34 53.718800
34 _114_ _114_:35 32.349700
35 _114_ _114_:36 68.108900
36 _114_ _114_:37 69.469100
37 _114_ _114_:38 67.099600
38 _114_ _114_:39 64.545100
39 _114_ _114_:40 63.283400
40 _114_ _114_:41 68.391200
41 _114_ _114_:42 69.691600
42 _114_ _114_:43 65.817400
43 _114_ _260_:I 0.000000
44 _114_ _256_:S 0.000000
45 _114_ _249_:S 0.000000
46 _114_ _248_:S 0.000000
47 _114_ _247_:S 0.000000
48 _114_ _246_:S 0.000000
49 _114_ _245_:S 0.000000
50 _114_ _242_:S 0.000000
51 _114_ _238_:S 0.000000
52 _114_ _237_:ZN 0.000000
*END

*D_NET _116_ 1.760830
*CONN
*P _116_ B
*I _241_:A2 B
*I _240_:Z B
*CAP
1 _116_ 1.760830
*RES
1 _116_ _116_:2 16.855100
2 _116_ _116_:3 28.331300
3 _116_ _116_:4 28.085200
4 _116_ _116_:5 16.784200
5 _116_ _241_:A2 0.000000
6 _116_ _240_:Z 0.000000
*END

*D_NET _117_ 5.832564
*CONN
*P _117_ B
*I _244_:B B
*I _243_:ZN B
*CAP
1 _117_ 5.769923
2 _117_ clknet_0_clk 0.001653
3 _117_ clknet_3_5__leaf_clk 0.005454
4 _117_ cur_byte[1] 0.037022
5 _117_ next_byte[7] 0.004628
6 _117_ tx_bitidx[0] 0.004628
7 _117_ tx_bitidx[1] 0.004628
8 _117_ tx_bitidx[2] 0.004628
*RES
1 _117_ _117_:2 37.363600
2 _117_ _117_:3 34.029400
3 _117_ _117_:4 36.578300
4 _117_ _117_:5 32.483700
5 _117_ _117_:6 15.530700
6 _117_ _117_:7 17.087300
7 _117_ _117_:8 11.795300
8 _117_ _117_:9 10.334200
9 _117_ _117_:10 11.384300
10 _117_ _117_:11 19.799100
11 _117_ _117_:12 12.674400
12 _117_ _117_:13 13.986200
13 _117_ _117_:14 18.439700
14 _117_ _117_:15 10.124300
15 _117_ _244_:B 0.000000
16 _117_ _243_:ZN 0.000000
*END

*D_NET _118_ 3.037691
*CONN
*P _118_ B
*I _276_:B B
*I _254_:A1 B
*I _250_:ZN B
*CAP
1 _118_ 3.003060
2 _118_ _122_ 0.001346
3 _118_ _132_ 0.003801
4 _118_ enc_line_valid 0.018511
5 _118_ tx_state[1] 0.004628
6 _118_ tx_state[4] 0.005519
7 _118_ txdm 0.000826
*RES
1 _118_ _118_:2 19.220200
2 _118_ _118_:3 28.349200
3 _118_ _118_:4 23.834300
4 _118_ _118_:5 18.891900
5 _118_ _118_:6 27.574000
6 _118_ _118_:7 33.208500
7 _118_ _118_:8 32.896800
8 _118_ _276_:B 0.000000
9 _118_ _254_:A1 0.000000
10 _118_ _250_:ZN 0.000000
*END

*D_NET _119_ 1.849735
*CONN
*P _119_ B
*I _253_:A2 B
*I _251_:ZN B
*CAP
1 _119_ 1.845107
2 _119_ _121_ 0.004628
*RES
1 _119_ _119_:2 25.919100
2 _119_ _119_:3 16.613500
3 _119_ _119_:4 25.365100
4 _119_ _119_:5 17.126200
5 _119_ _253_:A2 0.000000
6 _119_ _251_:ZN 0.000000
*END

*D_NET _120_ 5.075363
*CONN
*P _120_ B
*I _276_:C B
*I _253_:B B
*I _252_:ZN B
*CAP
1 _120_ 5.006632
2 _120_ _132_ 0.003801
3 _120_ clknet_0_clk 0.004628
4 _120_ clknet_3_6__leaf_clk 0.009255
5 _120_ enc_line_valid 0.018505
6 _120_ int_rst_n 0.009255
7 _120_ tx_state[1] 0.004628
8 _120_ tx_state[2] 0.004628
9 _120_ txdm 0.009403
10 _120_ u_encoder\/_01_ 0.004628
*RES
1 _120_ _120_:2 17.181900
2 _120_ _120_:3 16.985800
3 _120_ _120_:4 36.600800
4 _120_ _120_:5 32.089500
5 _120_ _120_:6 29.098600
6 _120_ _120_:7 30.803400
7 _120_ _120_:8 32.240500
8 _120_ _276_:C 0.000000
9 _120_ _253_:B 0.000000
10 _120_ _252_:ZN 0.000000
*END

*D_NET _121_ 2.352747
*CONN
*P _121_ B
*I _254_:A2 B
*I _253_:ZN B
*CAP
1 _121_ 2.350539
2 _121_ enc_line_valid 0.002208
*RES
1 _121_ _121_:2 24.517200
2 _121_ _121_:3 18.985700
3 _121_ _121_:4 13.672300
4 _121_ _121_:5 14.575500
5 _121_ _121_:6 7.523000
6 _121_ _121_:7 8.015000
7 _121_ _254_:A2 0.000000
8 _121_ _253_:ZN 0.000000
*END

*D_NET _122_ 1.380004
*CONN
*P _122_ B
*I _255_:A2 B
*I _254_:ZN B
*CAP
1 _122_ 1.380004
*RES
1 _122_ _122_:2 29.091300
2 _122_ _122_:3 1.884300
3 _122_ _122_:4 12.115900
4 _122_ _122_:5 20.465800
5 _122_ _122_:6 19.222300
6 _122_ _255_:A2 0.000000
7 _122_ _254_:ZN 0.000000
*END

*D_NET _123_ 2.157428
*CONN
*P _123_ B
*I _259_:A1 B
*I _257_:ZN B
*CAP
1 _123_ 2.134290
2 _123_ clknet_0_clk 0.009255
3 _123_ clknet_3_4__leaf_clk 0.004628
4 _123_ next_byte[1] 0.009255
*RES
1 _123_ _123_:2 19.368300
2 _123_ _123_:3 23.524500
3 _123_ _123_:4 11.510400
4 _123_ _123_:5 17.301900
5 _123_ _123_:6 14.698000
6 _123_ _259_:A1 0.000000
7 _123_ _257_:ZN 0.000000
*END

*D_NET _124_ 1.622940
*CONN
*P _124_ B
*I _259_:A2 B
*I _258_:ZN B
*CAP
1 _124_ 1.609883
2 _124_ clknet_3_5__leaf_clk 0.004628
3 _124_ next_byte[1] 0.004628
4 _124_ next_byte[7] 0.003801
*RES
1 _124_ _124_:2 19.854000
2 _124_ _124_:3 17.206200
3 _124_ _124_:4 20.767000
4 _124_ _124_:5 10.463600
5 _124_ _124_:6 15.783300
6 _124_ _259_:A2 0.000000
7 _124_ _258_:ZN 0.000000
*END

*D_NET _125_ 1.827239
*CONN
*P _125_ B
*I _262_:A2 B
*I _261_:ZN B
*CAP
1 _125_ 1.807223
2 _125_ next_valid 0.020016
*RES
1 _125_ _125_:2 16.755900
2 _125_ _125_:3 21.402400
3 _125_ _125_:4 25.588600
4 _125_ _125_:5 8.449200
5 _125_ _125_:6 12.722400
6 _125_ _262_:A2 0.000000
7 _125_ _261_:ZN 0.000000
*END

*D_NET _126_ 1.467243
*CONN
*P _126_ B
*I _264_:A2 B
*I _263_:Z B
*CAP
1 _126_ 1.460797
2 _126_ rx_shift[7] 0.006446
*RES
1 _126_ _126_:2 23.510100
2 _126_ _126_:3 21.313600
3 _126_ _126_:4 20.865900
4 _126_ _126_:5 22.965200
5 _126_ _264_:A2 0.000000
6 _126_ _263_:Z 0.000000
*END

*D_NET _127_ 1.471271
*CONN
*P _127_ B
*I _266_:A2 B
*I _265_:Z B
*CAP
1 _127_ 1.466643
2 _127_ clknet_3_0__leaf_clk 0.004628
*RES
1 _127_ _127_:2 32.762600
2 _127_ _127_:3 11.631100
3 _127_ _127_:4 32.221400
4 _127_ _127_:5 11.889000
5 _127_ _266_:A2 0.000000
6 _127_ _265_:Z 0.000000
*END

*D_NET _128_ 1.389680
*CONN
*P _128_ B
*I _268_:A2 B
*I _267_:Z B
*CAP
1 _128_ 1.389680
*RES
1 _128_ _128_:2 21.190800
2 _128_ _128_:3 23.374700
3 _128_ _128_:4 20.745600
4 _128_ _128_:5 22.832900
5 _128_ _268_:A2 0.000000
6 _128_ _267_:Z 0.000000
*END

*D_NET _129_ 1.467821
*CONN
*P _129_ B
*I _270_:A2 B
*I _269_:Z B
*CAP
1 _129_ 1.467821
*RES
1 _129_ _129_:2 32.762600
2 _129_ _129_:3 11.631100
3 _129_ _129_:4 32.221400
4 _129_ _129_:5 11.889000
5 _129_ _270_:A2 0.000000
6 _129_ _269_:Z 0.000000
*END

*D_NET _130_ 2.059330
*CONN
*P _130_ B
*I _273_:A2 B
*I _272_:Z B
*CAP
1 _130_ 2.059330
*RES
1 _130_ _130_:2 28.122900
2 _130_ _130_:3 17.612900
3 _130_ _130_:4 17.890200
4 _130_ _130_:5 27.814600
5 _130_ _273_:A2 0.000000
6 _130_ _272_:Z 0.000000
*END

*D_NET _131_ 1.390858
*CONN
*P _131_ B
*I _275_:A2 B
*I _274_:Z B
*CAP
1 _131_ 1.390858
*RES
1 _131_ _131_:2 23.374700
2 _131_ _131_:3 21.190800
3 _131_ _131_:4 20.745600
4 _131_ _131_:5 22.832900
5 _131_ _275_:A2 0.000000
6 _131_ _274_:Z 0.000000
*END

*D_NET _132_ 1.891752
*CONN
*P _132_ B
*I _277_:A3 B
*I _276_:ZN B
*CAP
1 _132_ 1.887124
2 _132_ enc_line_valid 0.004628
*RES
1 _132_ _132_:2 11.587500
2 _132_ _132_:3 13.441500
3 _132_ _132_:4 24.527000
4 _132_ _132_:5 7.180100
5 _132_ _132_:6 2.613600
6 _132_ _132_:7 14.023900
7 _132_ _132_:8 14.135600
8 _132_ _277_:A3 0.000000
9 _132_ _276_:ZN 0.000000
*END

*D_NET _133_ 1.768318
*CONN
*P _133_ B
*I _279_:A4 B
*I _278_:ZN B
*CAP
1 _133_ 1.744892
2 _133_ destuff_out_valid 0.008717
3 _133_ rx_bitcnt[0] 0.003801
4 _133_ rx_bitcnt[1] 0.010908
*RES
1 _133_ _133_:2 26.405200
2 _133_ _133_:3 16.856200
3 _133_ _133_:4 6.433100
4 _133_ _133_:5 7.287300
5 _133_ _133_:6 14.988500
6 _133_ _133_:7 15.623200
7 _133_ _279_:A4 0.000000
8 _133_ _278_:ZN 0.000000
*END

*D_NET _134_ 1.502655
*CONN
*P _134_ B
*I _281_:B B
*I _280_:ZN B
*CAP
1 _134_ 1.495052
2 _134_ rx_bitcnt[0] 0.007603
*RES
1 _134_ _134_:2 26.019700
2 _134_ _134_:3 12.060600
3 _134_ _134_:4 7.564900
4 _134_ _134_:5 2.144800
5 _134_ _134_:6 17.886400
6 _134_ _134_:7 17.206500
7 _134_ _281_:B 0.000000
8 _134_ _280_:ZN 0.000000
*END

*D_NET _135_ 2.268388
*CONN
*P _135_ B
*I _284_:A1 B
*I _282_:ZN B
*CAP
1 _135_ 2.263760
2 _135_ _136_ 0.004628
*RES
1 _135_ _135_:2 30.204300
2 _135_ _135_:3 25.508300
3 _135_ _135_:4 19.722900
4 _135_ _135_:5 46.548300
5 _135_ _135_:6 12.602900
6 _135_ _135_:7 35.962300
7 _135_ _284_:A1 0.000000
8 _135_ _282_:ZN 0.000000
*END

*D_NET _136_ 3.665458
*CONN
*P _136_ B
*I _284_:B B
*I _283_:ZN B
*CAP
1 _136_ 3.657091
2 _136_ next_byte[6] 0.008367
*RES
1 _136_ _136_:2 29.170700
2 _136_ _136_:3 37.688900
3 _136_ _136_:4 26.152400
4 _136_ _136_:5 34.144200
5 _136_ _136_:6 12.115500
6 _136_ _136_:7 15.107500
7 _136_ _136_:8 21.092500
8 _136_ _136_:9 18.099900
9 _136_ _136_:10 8.609000
10 _136_ _136_:11 8.870700
11 _136_ _136_:12 10.240400
12 _136_ _136_:13 12.354900
13 _136_ _136_:14 20.126400
14 _136_ _136_:15 17.158600
15 _136_ _284_:B 0.000000
16 _136_ _283_:ZN 0.000000
*END

*D_NET _137_ 3.940559
*CONN
*P _137_ B
*I _286_:B B
*I _285_:ZN B
*CAP
1 _137_ 3.926824
2 _137_ clknet_3_5__leaf_clk 0.005454
3 _137_ next_byte[3] 0.003801
4 _137_ next_byte[5] 0.003801
5 _137_ tx_state[3] 0.000679
*RES
1 _137_ _137_:2 37.356800
2 _137_ _137_:3 31.707900
3 _137_ _137_:4 36.661100
4 _137_ _137_:5 29.690500
5 _137_ _137_:6 11.332900
6 _137_ _137_:7 14.971800
7 _137_ _137_:8 16.926900
8 _137_ _137_:9 20.937300
9 _137_ _137_:10 18.918900
10 _137_ _137_:11 4.330000
11 _137_ _137_:12 6.664200
12 _137_ _137_:13 8.998500
13 _137_ _137_:14 18.130600
14 _137_ _137_:15 15.796600
15 _137_ _286_:B 0.000000
16 _137_ _285_:ZN 0.000000
*END

*D_NET _138_ 2.185829
*CONN
*P _138_ B
*I _288_:A2 B
*I _287_:ZN B
*CAP
1 _138_ 2.131079
2 _138_ clknet_3_3__leaf_clk 0.027270
3 _138_ eop_pulse 0.003801
4 _138_ int_rst_n 0.004628
5 _138_ sync_next 0.004628
6 _138_ u_eop_detector\/_00_ 0.014423
*RES
1 _138_ _138_:2 17.271000
2 _138_ _138_:3 5.063900
3 _138_ _138_:4 25.158500
4 _138_ _138_:5 13.179500
5 _138_ _138_:6 13.167700
6 _138_ _138_:7 12.770600
7 _138_ _288_:A2 0.000000
8 _138_ _287_:ZN 0.000000
*END

*D_NET _139_ 2.052612
*CONN
*P _139_ B
*I _289_:A2 B
*I _288_:ZN B
*CAP
1 _139_ 2.024360
2 _139_ clknet_3_3__leaf_clk 0.005609
3 _139_ dec_data_valid 0.004628
4 _139_ rx_receiving 0.018015
*RES
1 _139_ _139_:2 24.628500
2 _139_ _139_:3 10.176300
3 _139_ _139_:4 18.457000
4 _139_ _139_:5 16.643400
5 _139_ _139_:6 16.371100
6 _139_ _289_:A2 0.000000
7 _139_ _288_:ZN 0.000000
*END

*D_NET _140_ 2.641033
*CONN
*P _140_ B
*I _292_:A1 B
*I _290_:ZN B
*CAP
1 _140_ 2.636405
2 _140_ _141_ 0.004628
*RES
1 _140_ _140_:2 47.930000
2 _140_ _140_:3 15.279800
3 _140_ _140_:4 16.343900
4 _140_ _140_:5 37.832900
5 _140_ _140_:6 26.970000
6 _140_ _140_:7 27.701900
7 _140_ _292_:A1 0.000000
8 _140_ _290_:ZN 0.000000
*END

*D_NET _141_ 4.917527
*CONN
*P _141_ B
*I _292_:B B
*I _291_:ZN B
*CAP
1 _141_ 4.900173
2 _141_ clknet_3_5__leaf_clk 0.004628
3 _141_ cur_byte[6] 0.004628
4 _141_ next_byte[6] 0.004297
5 _141_ tx_state[3] 0.003801
*RES
1 _141_ _141_:2 35.999200
2 _141_ _141_:3 32.070900
3 _141_ _141_:4 37.448600
4 _141_ _141_:5 32.937700
5 _141_ _141_:6 14.985700
6 _141_ _141_:7 16.311200
7 _141_ _141_:8 19.021500
8 _141_ _141_:9 17.657900
9 _141_ _141_:10 7.437600
10 _141_ _141_:11 8.981000
11 _141_ _141_:12 12.114800
12 _141_ _141_:13 10.542400
13 _141_ _141_:14 16.765600
14 _141_ _141_:15 15.181700
15 _141_ _292_:B 0.000000
16 _141_ _291_:ZN 0.000000
*END

*D_NET _142_ 4.915938
*CONN
*P _142_ B
*I _294_:B B
*I _293_:ZN B
*CAP
1 _142_ 4.884618
2 _142_ clknet_3_5__leaf_clk 0.009255
3 _142_ next_byte[3] 0.004380
4 _142_ tx_bitidx[1] 0.013057
5 _142_ tx_bitidx[2] 0.004628
*RES
1 _142_ _142_:2 36.361400
2 _142_ _142_:3 32.924600
3 _142_ _142_:4 36.569600
4 _142_ _142_:5 32.471900
5 _142_ _142_:6 14.178800
6 _142_ _142_:7 15.411700
7 _142_ _142_:8 17.882700
8 _142_ _142_:9 16.646500
9 _142_ _142_:10 8.743700
10 _142_ _142_:11 10.090600
11 _142_ _142_:12 12.797400
12 _142_ _142_:13 11.442300
13 _142_ _142_:14 16.731500
14 _142_ _142_:15 15.369100
15 _142_ _294_:B 0.000000
16 _142_ _293_:ZN 0.000000
*END

*D_NET _143_ 2.121373
*CONN
*P _143_ B
*I _297_:A1 B
*I _295_:ZN B
*CAP
1 _143_ 2.106338
2 _143_ _144_ 0.004628
3 _143_ clknet_3_5__leaf_clk 0.004628
4 _143_ cur_byte[2] 0.005779
*RES
1 _143_ _143_:2 40.317400
2 _143_ _143_:3 18.518400
3 _143_ _143_:4 25.135700
4 _143_ _143_:5 40.353300
5 _143_ _143_:6 19.181800
6 _143_ _143_:7 26.357700
7 _143_ _297_:A1 0.000000
8 _143_ _295_:ZN 0.000000
*END

*D_NET _144_ 3.201486
*CONN
*P _144_ B
*I _297_:B B
*I _296_:ZN B
*CAP
1 _144_ 3.188639
2 _144_ clknet_3_5__leaf_clk 0.003801
3 _144_ next_byte[2] 0.008367
4 _144_ tx_state[3] 0.000679
*RES
1 _144_ _144_:2 38.855600
2 _144_ _144_:3 29.546600
3 _144_ _144_:4 35.832800
4 _144_ _144_:5 23.094700
5 _144_ _144_:6 8.048000
6 _144_ _144_:7 16.897100
7 _144_ _144_:8 19.952200
8 _144_ _144_:9 26.775500
9 _144_ _144_:10 23.278600
10 _144_ _144_:11 4.971700
11 _144_ _144_:12 0.646200
12 _144_ _144_:13 3.710600
13 _144_ _144_:14 20.685400
14 _144_ _144_:15 16.349100
15 _144_ _297_:B 0.000000
16 _144_ _296_:ZN 0.000000
*END

*D_NET _145_ 1.779222
*CONN
*P _145_ B
*I u_decoder\/_10_:I B
*I _350_:ZN B
*CAP
1 _145_ 1.752839
2 _145_ clknet_0_clk 0.004628
3 _145_ dec_data_bit 0.008946
4 _145_ u_decoder\/_00_ 0.008181
5 _145_ u_decoder\/_02_ 0.004628
*RES
1 _145_ _145_:2 41.983100
2 _145_ _145_:3 27.000200
3 _145_ _145_:4 15.843000
4 _145_ u_decoder\/_10_:I 0.000000
5 _145_ _350_:ZN 0.000000
*END

*D_NET bus_reset 3.488833
*CONN
*P bus_reset B
*I u_eop_detector\/_54_:Q B
*I u_eop_detector\/_32_:B B
*I _287_:A3 B
*CAP
1 bus_reset 3.446696
2 bus_reset clknet_0_clk 0.004628
3 bus_reset clknet_3_3__leaf_clk 0.023139
4 bus_reset int_rst_n 0.009255
5 bus_reset u_eop_detector\/_00_ 0.004628
6 bus_reset u_eop_detector\/_10_ 0.000487
*RES
1 bus_reset bus_reset:2 25.296400
2 bus_reset bus_reset:3 38.696300
3 bus_reset bus_reset:4 28.384800
4 bus_reset bus_reset:5 31.526800
5 bus_reset bus_reset:6 22.476200
6 bus_reset bus_reset:7 40.216400
7 bus_reset u_eop_detector\/_54_:Q 0.000000
8 bus_reset u_eop_detector\/_32_:B 0.000000
9 bus_reset _287_:A3 0.000000
*END

*D_NET clk 7.733780
*CONN
*P clk B
*I clkbuf_0_clk:I B
*CAP
1 clk 7.666347
2 clk clknet_0_clk 0.005619
3 clk clknet_3_4__leaf_clk 0.009255
4 clk int_rst_n 0.004628
5 clk line_state[0] 0.004628
6 clk line_state[1] 0.009255
7 clk rx_shift[1] 0.004628
8 clk rxdm 0.004628
9 clk rxdp 0.004628
10 clk txdm 0.004628
11 clk txdp 0.010908
12 clk u_line_state\/_0_ 0.004628
*RES
1 clk clk:2 47.127700
2 clk clk:3 47.720700
3 clk clk:4 47.127700
4 clk clk:5 47.720700
5 clk clkbuf_0_clk:I 0.000000
*END

*D_NET clknet_0_clk 28.641882
*CONN
*P clknet_0_clk B
*I clkbuf_3_7__f_clk:I B
*I clkbuf_3_6__f_clk:I B
*I clkbuf_3_5__f_clk:I B
*I clkbuf_3_4__f_clk:I B
*I clkbuf_3_3__f_clk:I B
*I clkbuf_3_2__f_clk:I B
*I clkbuf_3_1__f_clk:I B
*I clkbuf_3_0__f_clk:I B
*I clkbuf_0_clk:Z B
*CAP
1 clknet_0_clk 28.268368
2 clknet_0_clk clknet_3_3__leaf_clk 0.004628
3 clknet_0_clk clknet_3_4__leaf_clk 0.009255
4 clknet_0_clk clknet_3_5__leaf_clk 0.004628
5 clknet_0_clk clknet_3_6__leaf_clk 0.009255
6 clknet_0_clk dec_data_bit 0.009255
7 clknet_0_clk dec_data_valid 0.004628
8 clknet_0_clk dec_line_valid 0.013883
9 clknet_0_clk destuff_in_valid 0.004628
10 clknet_0_clk enc_line_bit 0.004628
11 clknet_0_clk enc_line_valid 0.004628
12 clknet_0_clk int_rst_n 0.032394
13 clknet_0_clk line_state[0] 0.004628
14 clknet_0_clk line_state[1] 0.007260
15 clknet_0_clk next_byte[1] 0.050905
16 clknet_0_clk next_byte[7] 0.004628
17 clknet_0_clk rx_receiving 0.009255
18 clknet_0_clk stuff_out_bit 0.004628
19 clknet_0_clk sync_next 0.004628
20 clknet_0_clk tx_state[0] 0.004628
21 clknet_0_clk tx_state[2] 0.032394
22 clknet_0_clk tx_state[3] 0.004628
23 clknet_0_clk txdm 0.004628
24 clknet_0_clk txdp 0.004628
25 clknet_0_clk u_decoder\/_00_ 0.004628
26 clknet_0_clk u_decoder\/_04_ 0.013883
27 clknet_0_clk u_decoder\/_06_ 0.004628
28 clknet_0_clk u_decoder\/_07_ 0.013883
29 clknet_0_clk u_decoder\/prev_line 0.004628
30 clknet_0_clk u_destuffer\/_07_ 0.008429
31 clknet_0_clk u_destuffer\/_08_ 0.003801
32 clknet_0_clk u_destuffer\/_10_ 0.006942
33 clknet_0_clk u_encoder\/_01_ 0.004628
34 clknet_0_clk u_encoder\/_02_ 0.004628
35 clknet_0_clk u_encoder\/_04_ 0.027766
36 clknet_0_clk u_encoder\/_05_ 0.004628
37 clknet_0_clk u_eop_detector\/_00_ 0.027766
38 clknet_0_clk u_eop_detector\/_08_ 0.004628
*RES
1 clknet_0_clk clknet_0_clk:2 43.162400
2 clknet_0_clk clknet_0_clk:3 40.715500
3 clknet_0_clk clknet_0_clk:4 54.502000
4 clknet_0_clk clknet_0_clk:5 29.031600
5 clknet_0_clk clknet_0_clk:6 49.534200
6 clknet_0_clk clknet_0_clk:7 53.056900
7 clknet_0_clk clknet_0_clk:8 33.946100
8 clknet_0_clk clknet_0_clk:9 60.723400
9 clknet_0_clk clknet_0_clk:10 55.523800
10 clknet_0_clk clknet_0_clk:11 42.558700
11 clknet_0_clk clknet_0_clk:12 41.347500
12 clknet_0_clk clknet_0_clk:13 48.387400
13 clknet_0_clk clknet_0_clk:14 61.653000
14 clknet_0_clk clknet_0_clk:15 33.134600
15 clknet_0_clk clknet_0_clk:16 29.956500
16 clknet_0_clk clknet_0_clk:17 51.936000
17 clknet_0_clk clknet_0_clk:18 59.948700
18 clknet_0_clk clknet_0_clk:19 48.957600
19 clknet_0_clk clknet_0_clk:20 40.142100
20 clknet_0_clk clknet_0_clk:21 56.884000
21 clknet_0_clk clknet_0_clk:22 31.157500
22 clknet_0_clk clknet_0_clk:23 51.313500
23 clknet_0_clk clknet_0_clk:24 31.709100
24 clknet_0_clk clknet_0_clk:25 38.958300
25 clknet_0_clk clknet_0_clk:26 58.993300
26 clknet_0_clk clknet_0_clk:27 40.783100
27 clknet_0_clk clknet_0_clk:28 50.092600
28 clknet_0_clk clknet_0_clk:29 52.448800
29 clknet_0_clk clknet_0_clk:30 32.021100
30 clknet_0_clk clknet_0_clk:31 30.838800
31 clknet_0_clk clknet_0_clk:32 38.288400
32 clknet_0_clk clknet_0_clk:33 55.888100
33 clknet_0_clk clknet_0_clk:34 2.592500
34 clknet_0_clk clknet_0_clk:35 4.055700
35 clknet_0_clk clknet_0_clk:36 3.417500
36 clknet_0_clk clknet_0_clk:37 3.195800
37 clknet_0_clk clknet_0_clk:38 3.098500
38 clknet_0_clk clknet_0_clk:39 0.919800
39 clknet_0_clk clknet_0_clk:40 1.439300
40 clknet_0_clk clknet_0_clk:41 0.336300
41 clknet_0_clk clkbuf_3_7__f_clk:I 0.000000
42 clknet_0_clk clkbuf_3_6__f_clk:I 0.000000
43 clknet_0_clk clkbuf_3_5__f_clk:I 0.000000
44 clknet_0_clk clkbuf_3_4__f_clk:I 0.000000
45 clknet_0_clk clkbuf_3_3__f_clk:I 0.000000
46 clknet_0_clk clkbuf_3_2__f_clk:I 0.000000
47 clknet_0_clk clkbuf_3_1__f_clk:I 0.000000
48 clknet_0_clk clkbuf_3_0__f_clk:I 0.000000
49 clknet_0_clk clkbuf_0_clk:Z 0.000000
*END

*D_NET clknet_3_0__leaf_clk 24.637468
*CONN
*P clknet_3_0__leaf_clk B
*I _306_:CLK B
*I _307_:CLK B
*I _308_:CLK B
*I _312_:CLK B
*I _313_:CLK B
*I _314_:CLK B
*I _315_:CLK B
*I _320_:CLK B
*I _321_:CLK B
*I _322_:CLK B
*I _323_:CLK B
*I u_destuffer\/_44_:CLK B
*I u_destuffer\/_47_:CLK B
*I u_destuffer\/_48_:CLK B
*I u_destuffer\/_49_:CLK B
*I clkbuf_3_0__f_clk:Z B
*CAP
1 clknet_3_0__leaf_clk 24.554168
2 clknet_3_0__leaf_clk destuff_out_bit 0.013883
3 clknet_3_0__leaf_clk destuff_out_valid 0.008429
4 clknet_3_0__leaf_clk rx_bitcnt[0] 0.005454
5 clknet_3_0__leaf_clk rx_bitcnt[2] 0.013883
6 clknet_3_0__leaf_clk rx_shift[5] 0.009255
7 clknet_3_0__leaf_clk rx_shift[6] 0.004628
8 clknet_3_0__leaf_clk rx_shift[7] 0.004628
9 clknet_3_0__leaf_clk u_destuffer\/_00_ 0.004628
10 clknet_3_0__leaf_clk u_destuffer\/_04_ 0.004628
11 clknet_3_0__leaf_clk u_destuffer\/_20_ 0.004628
12 clknet_3_0__leaf_clk u_destuffer\/ones[1] 0.004628
13 clknet_3_0__leaf_clk u_destuffer\/ones[2] 0.004628
*RES
1 clknet_3_0__leaf_clk clknet_3_0__leaf_clk:2 63.424100
2 clknet_3_0__leaf_clk clknet_3_0__leaf_clk:3 60.691300
3 clknet_3_0__leaf_clk clknet_3_0__leaf_clk:4 34.328600
4 clknet_3_0__leaf_clk clknet_3_0__leaf_clk:5 55.617100
5 clknet_3_0__leaf_clk clknet_3_0__leaf_clk:6 49.094400
6 clknet_3_0__leaf_clk clknet_3_0__leaf_clk:7 35.264600
7 clknet_3_0__leaf_clk clknet_3_0__leaf_clk:8 43.079900
8 clknet_3_0__leaf_clk clknet_3_0__leaf_clk:9 52.556600
9 clknet_3_0__leaf_clk clknet_3_0__leaf_clk:10 14.246700
10 clknet_3_0__leaf_clk clknet_3_0__leaf_clk:11 37.060800
11 clknet_3_0__leaf_clk clknet_3_0__leaf_clk:12 40.463300
12 clknet_3_0__leaf_clk clknet_3_0__leaf_clk:13 23.237700
13 clknet_3_0__leaf_clk clknet_3_0__leaf_clk:14 17.025500
14 clknet_3_0__leaf_clk clknet_3_0__leaf_clk:15 36.263900
15 clknet_3_0__leaf_clk clknet_3_0__leaf_clk:16 24.788900
16 clknet_3_0__leaf_clk clknet_3_0__leaf_clk:17 35.576900
17 clknet_3_0__leaf_clk clknet_3_0__leaf_clk:18 36.445700
18 clknet_3_0__leaf_clk clknet_3_0__leaf_clk:19 33.397600
19 clknet_3_0__leaf_clk clknet_3_0__leaf_clk:20 12.414900
20 clknet_3_0__leaf_clk clknet_3_0__leaf_clk:21 52.380600
21 clknet_3_0__leaf_clk clknet_3_0__leaf_clk:22 15.408100
22 clknet_3_0__leaf_clk clknet_3_0__leaf_clk:23 21.231900
23 clknet_3_0__leaf_clk clknet_3_0__leaf_clk:24 38.475600
24 clknet_3_0__leaf_clk clknet_3_0__leaf_clk:25 36.958800
25 clknet_3_0__leaf_clk clknet_3_0__leaf_clk:26 26.683400
26 clknet_3_0__leaf_clk clknet_3_0__leaf_clk:27 43.338900
27 clknet_3_0__leaf_clk clknet_3_0__leaf_clk:28 36.279700
28 clknet_3_0__leaf_clk clknet_3_0__leaf_clk:29 41.407200
29 clknet_3_0__leaf_clk clknet_3_0__leaf_clk:30 58.510300
30 clknet_3_0__leaf_clk clknet_3_0__leaf_clk:31 50.247200
31 clknet_3_0__leaf_clk clknet_3_0__leaf_clk:32 47.718600
32 clknet_3_0__leaf_clk clknet_3_0__leaf_clk:33 44.572400
33 clknet_3_0__leaf_clk clknet_3_0__leaf_clk:34 43.576200
34 clknet_3_0__leaf_clk clknet_3_0__leaf_clk:35 41.701100
35 clknet_3_0__leaf_clk clknet_3_0__leaf_clk:36 42.618300
36 clknet_3_0__leaf_clk clknet_3_0__leaf_clk:37 46.792000
37 clknet_3_0__leaf_clk clknet_3_0__leaf_clk:38 45.056100
38 clknet_3_0__leaf_clk clknet_3_0__leaf_clk:39 45.903800
39 clknet_3_0__leaf_clk _306_:CLK 0.000000
40 clknet_3_0__leaf_clk _307_:CLK 0.000000
41 clknet_3_0__leaf_clk _308_:CLK 0.000000
42 clknet_3_0__leaf_clk _312_:CLK 0.000000
43 clknet_3_0__leaf_clk _313_:CLK 0.000000
44 clknet_3_0__leaf_clk _314_:CLK 0.000000
45 clknet_3_0__leaf_clk _315_:CLK 0.000000
46 clknet_3_0__leaf_clk _320_:CLK 0.000000
47 clknet_3_0__leaf_clk _321_:CLK 0.000000
48 clknet_3_0__leaf_clk _322_:CLK 0.000000
49 clknet_3_0__leaf_clk _323_:CLK 0.000000
50 clknet_3_0__leaf_clk u_destuffer\/_44_:CLK 0.000000
51 clknet_3_0__leaf_clk u_destuffer\/_47_:CLK 0.000000
52 clknet_3_0__leaf_clk u_destuffer\/_48_:CLK 0.000000
53 clknet_3_0__leaf_clk u_destuffer\/_49_:CLK 0.000000
54 clknet_3_0__leaf_clk clkbuf_3_0__f_clk:Z 0.000000
*END

*D_NET clknet_3_1__leaf_clk 19.062181
*CONN
*P clknet_3_1__leaf_clk B
*I clkload0:I B
*I _309_:CLK B
*I _310_:CLK B
*I _311_:CLK B
*I _316_:CLK B
*I _317_:CLK B
*I _318_:CLK B
*I _319_:CLK B
*I _324_:CLK B
*I _325_:CLK B
*I u_line_state\/_6_:CLK B
*I clkbuf_3_1__f_clk:Z B
*CAP
1 clknet_3_1__leaf_clk 18.995430
2 clknet_3_1__leaf_clk destuff_out_valid 0.004628
3 clknet_3_1__leaf_clk line_state[0] 0.005609
4 clknet_3_1__leaf_clk rst_n 0.004628
5 clknet_3_1__leaf_clk rx_receiving 0.013883
6 clknet_3_1__leaf_clk rx_shift[1] 0.004628
7 clknet_3_1__leaf_clk rx_shift[2] 0.004628
8 clknet_3_1__leaf_clk rx_shift[3] 0.009255
9 clknet_3_1__leaf_clk rx_shift[4] 0.018511
10 clknet_3_1__leaf_clk txdp 0.000981
*RES
1 clknet_3_1__leaf_clk clknet_3_1__leaf_clk:2 31.187100
2 clknet_3_1__leaf_clk clknet_3_1__leaf_clk:3 37.047900
3 clknet_3_1__leaf_clk clknet_3_1__leaf_clk:4 38.198900
4 clknet_3_1__leaf_clk clknet_3_1__leaf_clk:5 37.284500
5 clknet_3_1__leaf_clk clknet_3_1__leaf_clk:6 37.669600
6 clknet_3_1__leaf_clk clknet_3_1__leaf_clk:7 31.938900
7 clknet_3_1__leaf_clk clknet_3_1__leaf_clk:8 31.475700
8 clknet_3_1__leaf_clk clknet_3_1__leaf_clk:9 32.569200
9 clknet_3_1__leaf_clk clknet_3_1__leaf_clk:10 83.831700
10 clknet_3_1__leaf_clk clknet_3_1__leaf_clk:11 36.818500
11 clknet_3_1__leaf_clk clknet_3_1__leaf_clk:12 29.497100
12 clknet_3_1__leaf_clk clknet_3_1__leaf_clk:13 29.556000
13 clknet_3_1__leaf_clk clknet_3_1__leaf_clk:14 39.653800
14 clknet_3_1__leaf_clk clknet_3_1__leaf_clk:15 35.552100
15 clknet_3_1__leaf_clk clknet_3_1__leaf_clk:16 22.581900
16 clknet_3_1__leaf_clk clknet_3_1__leaf_clk:17 76.902200
17 clknet_3_1__leaf_clk clknet_3_1__leaf_clk:18 56.818300
18 clknet_3_1__leaf_clk clknet_3_1__leaf_clk:19 17.537900
19 clknet_3_1__leaf_clk clknet_3_1__leaf_clk:20 20.802100
20 clknet_3_1__leaf_clk clknet_3_1__leaf_clk:21 25.055700
21 clknet_3_1__leaf_clk clknet_3_1__leaf_clk:22 52.201400
22 clknet_3_1__leaf_clk clknet_3_1__leaf_clk:23 72.138000
23 clknet_3_1__leaf_clk clknet_3_1__leaf_clk:24 40.999000
24 clknet_3_1__leaf_clk clknet_3_1__leaf_clk:25 88.581200
25 clknet_3_1__leaf_clk clknet_3_1__leaf_clk:26 28.182500
26 clknet_3_1__leaf_clk clknet_3_1__leaf_clk:27 35.845300
27 clknet_3_1__leaf_clk clknet_3_1__leaf_clk:28 27.914000
28 clknet_3_1__leaf_clk clknet_3_1__leaf_clk:29 31.122400
29 clknet_3_1__leaf_clk clknet_3_1__leaf_clk:30 25.820200
30 clknet_3_1__leaf_clk clknet_3_1__leaf_clk:31 19.972100
31 clknet_3_1__leaf_clk clknet_3_1__leaf_clk:32 20.439600
32 clknet_3_1__leaf_clk clknet_3_1__leaf_clk:33 19.846800
33 clknet_3_1__leaf_clk clknet_3_1__leaf_clk:34 20.004900
34 clknet_3_1__leaf_clk clknet_3_1__leaf_clk:35 25.733200
35 clknet_3_1__leaf_clk clknet_3_1__leaf_clk:36 26.212300
36 clknet_3_1__leaf_clk clknet_3_1__leaf_clk:37 25.865000
37 clknet_3_1__leaf_clk clkload0:I 0.000000
38 clknet_3_1__leaf_clk _309_:CLK 0.000000
39 clknet_3_1__leaf_clk _310_:CLK 0.000000
40 clknet_3_1__leaf_clk _311_:CLK 0.000000
41 clknet_3_1__leaf_clk _316_:CLK 0.000000
42 clknet_3_1__leaf_clk _317_:CLK 0.000000
43 clknet_3_1__leaf_clk _318_:CLK 0.000000
44 clknet_3_1__leaf_clk _319_:CLK 0.000000
45 clknet_3_1__leaf_clk _324_:CLK 0.000000
46 clknet_3_1__leaf_clk _325_:CLK 0.000000
47 clknet_3_1__leaf_clk u_line_state\/_6_:CLK 0.000000
48 clknet_3_1__leaf_clk clkbuf_3_1__f_clk:Z 0.000000
*END

*D_NET clknet_3_2__leaf_clk 22.325123
*CONN
*P clknet_3_2__leaf_clk B
*I clkload1:I B
*I u_decoder\/_19_:CLK B
*I u_decoder\/_20_:CLK B
*I u_destuffer\/_45_:CLK B
*I u_destuffer\/_46_:CLK B
*I u_eop_detector\/_58_:CLK B
*I u_eop_detector\/_59_:CLK B
*I u_eop_detector\/_60_:CLK B
*I u_sync_detector\/_34_:CLK B
*I u_sync_detector\/_35_:CLK B
*I u_sync_detector\/_36_:CLK B
*I u_sync_detector\/_37_:CLK B
*I clkbuf_3_2__f_clk:Z B
*CAP
1 clknet_3_2__leaf_clk 22.148579
2 clknet_3_2__leaf_clk dec_data_bit 0.009917
3 clknet_3_2__leaf_clk dec_data_valid 0.009255
4 clknet_3_2__leaf_clk destuff_in_valid 0.013883
5 clknet_3_2__leaf_clk int_rst_n 0.013057
6 clknet_3_2__leaf_clk sync_next 0.016542
7 clknet_3_2__leaf_clk u_destuffer\/_07_ 0.004628
8 clknet_3_2__leaf_clk u_destuffer\/_10_ 0.004628
9 clknet_3_2__leaf_clk u_destuffer\/_14_ 0.004628
10 clknet_3_2__leaf_clk u_destuffer\/ones[0] 0.004628
11 clknet_3_2__leaf_clk u_destuffer\/ones[1] 0.004628
12 clknet_3_2__leaf_clk u_eop_detector\/_01_ 0.004628
13 clknet_3_2__leaf_clk u_eop_detector\/_09_ 0.000981
14 clknet_3_2__leaf_clk u_eop_detector\/_15_ 0.004628
15 clknet_3_2__leaf_clk u_eop_detector\/_16_ 0.004628
16 clknet_3_2__leaf_clk u_eop_detector\/se0_count[2] 0.004628
17 clknet_3_2__leaf_clk u_sync_detector\/_00_ 0.004628
18 clknet_3_2__leaf_clk u_sync_detector\/_06_ 0.003801
19 clknet_3_2__leaf_clk u_sync_detector\/_07_ 0.013576
20 clknet_3_2__leaf_clk u_sync_detector\/_08_ 0.004628
21 clknet_3_2__leaf_clk u_sync_detector\/_09_ 0.008429
22 clknet_3_2__leaf_clk u_sync_detector\/_10_ 0.008429
23 clknet_3_2__leaf_clk u_sync_detector\/_11_ 0.009255
24 clknet_3_2__leaf_clk u_sync_detector\/_12_ 0.004628
25 clknet_3_2__leaf_clk u_sync_detector\/match[2] 0.013883
*RES
1 clknet_3_2__leaf_clk clknet_3_2__leaf_clk:2 16.497600
2 clknet_3_2__leaf_clk clknet_3_2__leaf_clk:3 16.387800
3 clknet_3_2__leaf_clk clknet_3_2__leaf_clk:4 13.104700
4 clknet_3_2__leaf_clk clknet_3_2__leaf_clk:5 14.745500
5 clknet_3_2__leaf_clk clknet_3_2__leaf_clk:6 14.875600
6 clknet_3_2__leaf_clk clknet_3_2__leaf_clk:7 13.260000
7 clknet_3_2__leaf_clk clknet_3_2__leaf_clk:8 54.350500
8 clknet_3_2__leaf_clk clknet_3_2__leaf_clk:9 47.197700
9 clknet_3_2__leaf_clk clknet_3_2__leaf_clk:10 29.591800
10 clknet_3_2__leaf_clk clknet_3_2__leaf_clk:11 47.106800
11 clknet_3_2__leaf_clk clknet_3_2__leaf_clk:12 21.782600
12 clknet_3_2__leaf_clk clknet_3_2__leaf_clk:13 42.148100
13 clknet_3_2__leaf_clk clknet_3_2__leaf_clk:14 62.137100
14 clknet_3_2__leaf_clk clknet_3_2__leaf_clk:15 36.098000
15 clknet_3_2__leaf_clk clknet_3_2__leaf_clk:16 47.534600
16 clknet_3_2__leaf_clk clknet_3_2__leaf_clk:17 63.920700
17 clknet_3_2__leaf_clk clknet_3_2__leaf_clk:18 43.767200
18 clknet_3_2__leaf_clk clknet_3_2__leaf_clk:19 32.737500
19 clknet_3_2__leaf_clk clknet_3_2__leaf_clk:20 47.125700
20 clknet_3_2__leaf_clk clknet_3_2__leaf_clk:21 48.203900
21 clknet_3_2__leaf_clk clknet_3_2__leaf_clk:22 56.171700
22 clknet_3_2__leaf_clk clknet_3_2__leaf_clk:23 25.120400
23 clknet_3_2__leaf_clk clknet_3_2__leaf_clk:24 34.009000
24 clknet_3_2__leaf_clk clknet_3_2__leaf_clk:25 60.657300
25 clknet_3_2__leaf_clk clknet_3_2__leaf_clk:26 58.803500
26 clknet_3_2__leaf_clk clknet_3_2__leaf_clk:27 43.846500
27 clknet_3_2__leaf_clk clknet_3_2__leaf_clk:28 41.416200
28 clknet_3_2__leaf_clk clknet_3_2__leaf_clk:29 39.135500
29 clknet_3_2__leaf_clk clknet_3_2__leaf_clk:30 34.244800
30 clknet_3_2__leaf_clk clknet_3_2__leaf_clk:31 37.578000
31 clknet_3_2__leaf_clk clknet_3_2__leaf_clk:32 35.016000
32 clknet_3_2__leaf_clk clknet_3_2__leaf_clk:33 36.669900
33 clknet_3_2__leaf_clk clknet_3_2__leaf_clk:34 35.814600
34 clknet_3_2__leaf_clk clknet_3_2__leaf_clk:35 31.423700
35 clknet_3_2__leaf_clk clknet_3_2__leaf_clk:36 33.249400
36 clknet_3_2__leaf_clk clknet_3_2__leaf_clk:37 32.307400
37 clknet_3_2__leaf_clk clkload1:I 0.000000
38 clknet_3_2__leaf_clk u_decoder\/_19_:CLK 0.000000
39 clknet_3_2__leaf_clk u_decoder\/_20_:CLK 0.000000
40 clknet_3_2__leaf_clk u_destuffer\/_45_:CLK 0.000000
41 clknet_3_2__leaf_clk u_destuffer\/_46_:CLK 0.000000
42 clknet_3_2__leaf_clk u_eop_detector\/_58_:CLK 0.000000
43 clknet_3_2__leaf_clk u_eop_detector\/_59_:CLK 0.000000
44 clknet_3_2__leaf_clk u_eop_detector\/_60_:CLK 0.000000
45 clknet_3_2__leaf_clk u_sync_detector\/_34_:CLK 0.000000
46 clknet_3_2__leaf_clk u_sync_detector\/_35_:CLK 0.000000
47 clknet_3_2__leaf_clk u_sync_detector\/_36_:CLK 0.000000
48 clknet_3_2__leaf_clk u_sync_detector\/_37_:CLK 0.000000
49 clknet_3_2__leaf_clk clkbuf_3_2__f_clk:Z 0.000000
*END

*D_NET clknet_3_3__leaf_clk 23.384243
*CONN
*P clknet_3_3__leaf_clk B
*I clkload2:I B
*I _326_:CLK B
*I _338_:CLK B
*I _340_:CLK B
*I _342_:CLK B
*I _349_:CLK B
*I u_decoder\/_18_:CLK B
*I u_eop_detector\/_54_:CLK B
*I u_eop_detector\/_55_:CLK B
*I u_eop_detector\/_56_:CLK B
*I u_eop_detector\/_57_:CLK B
*I u_eop_detector\/_61_:CLK B
*I u_sync_detector\/_33_:CLK B
*I clkbuf_3_3__f_clk:Z B
*CAP
1 clknet_3_3__leaf_clk 23.131702
2 clknet_3_3__leaf_clk dec_data_valid 0.004628
3 clknet_3_3__leaf_clk int_rst_n 0.014710
4 clknet_3_3__leaf_clk rx_receiving 0.004628
5 clknet_3_3__leaf_clk sync_next 0.013883
6 clknet_3_3__leaf_clk u_decoder\/_07_ 0.005609
7 clknet_3_3__leaf_clk u_eop_detector\/_03_ 0.010082
8 clknet_3_3__leaf_clk u_eop_detector\/_09_ 0.106437
9 clknet_3_3__leaf_clk u_eop_detector\/_10_ 0.004628
10 clknet_3_3__leaf_clk u_eop_detector\/_11_ 0.003801
11 clknet_3_3__leaf_clk u_eop_detector\/_12_ 0.000826
12 clknet_3_3__leaf_clk u_eop_detector\/_14_ 0.004628
13 clknet_3_3__leaf_clk u_eop_detector\/_15_ 0.012230
14 clknet_3_3__leaf_clk u_eop_detector\/_17_ 0.009359
15 clknet_3_3__leaf_clk u_eop_detector\/_18_ 0.009255
16 clknet_3_3__leaf_clk u_eop_detector\/_19_ 0.004628
17 clknet_3_3__leaf_clk u_eop_detector\/_20_ 0.004628
18 clknet_3_3__leaf_clk u_eop_detector\/_21_ 0.004628
19 clknet_3_3__leaf_clk u_eop_detector\/_26_ 0.004628
20 clknet_3_3__leaf_clk u_eop_detector\/se0_count[0] 0.004628
21 clknet_3_3__leaf_clk u_eop_detector\/se0_count[1] 0.004628
22 clknet_3_3__leaf_clk u_eop_detector\/se0_count[2] 0.003801
23 clknet_3_3__leaf_clk u_eop_detector\/se0_count[5] 0.011640
24 clknet_3_3__leaf_clk u_sync_detector\/_04_ 0.004628
*RES
1 clknet_3_3__leaf_clk clknet_3_3__leaf_clk:2 18.284900
2 clknet_3_3__leaf_clk clknet_3_3__leaf_clk:3 18.717500
3 clknet_3_3__leaf_clk clknet_3_3__leaf_clk:4 19.496500
4 clknet_3_3__leaf_clk clknet_3_3__leaf_clk:5 24.793100
5 clknet_3_3__leaf_clk clknet_3_3__leaf_clk:6 25.126100
6 clknet_3_3__leaf_clk clknet_3_3__leaf_clk:7 25.723500
7 clknet_3_3__leaf_clk clknet_3_3__leaf_clk:8 71.398500
8 clknet_3_3__leaf_clk clknet_3_3__leaf_clk:9 75.796600
9 clknet_3_3__leaf_clk clknet_3_3__leaf_clk:10 79.290100
10 clknet_3_3__leaf_clk clknet_3_3__leaf_clk:11 88.852600
11 clknet_3_3__leaf_clk clknet_3_3__leaf_clk:12 25.150200
12 clknet_3_3__leaf_clk clknet_3_3__leaf_clk:13 34.461300
13 clknet_3_3__leaf_clk clknet_3_3__leaf_clk:14 47.937500
14 clknet_3_3__leaf_clk clknet_3_3__leaf_clk:15 57.569400
15 clknet_3_3__leaf_clk clknet_3_3__leaf_clk:16 35.609900
16 clknet_3_3__leaf_clk clknet_3_3__leaf_clk:17 23.831700
17 clknet_3_3__leaf_clk clknet_3_3__leaf_clk:18 28.252300
18 clknet_3_3__leaf_clk clknet_3_3__leaf_clk:19 60.577900
19 clknet_3_3__leaf_clk clknet_3_3__leaf_clk:20 66.761700
20 clknet_3_3__leaf_clk clknet_3_3__leaf_clk:21 61.917900
21 clknet_3_3__leaf_clk clknet_3_3__leaf_clk:22 80.737400
22 clknet_3_3__leaf_clk clknet_3_3__leaf_clk:23 42.594200
23 clknet_3_3__leaf_clk clknet_3_3__leaf_clk:24 39.408600
24 clknet_3_3__leaf_clk clknet_3_3__leaf_clk:25 26.127600
25 clknet_3_3__leaf_clk clknet_3_3__leaf_clk:26 65.408100
26 clknet_3_3__leaf_clk clknet_3_3__leaf_clk:27 84.598800
27 clknet_3_3__leaf_clk clknet_3_3__leaf_clk:28 30.020400
28 clknet_3_3__leaf_clk clknet_3_3__leaf_clk:29 33.650000
29 clknet_3_3__leaf_clk clknet_3_3__leaf_clk:30 22.018500
30 clknet_3_3__leaf_clk clknet_3_3__leaf_clk:31 83.655100
31 clknet_3_3__leaf_clk clknet_3_3__leaf_clk:32 6.113400
32 clknet_3_3__leaf_clk clknet_3_3__leaf_clk:33 8.153100
33 clknet_3_3__leaf_clk clknet_3_3__leaf_clk:34 5.653400
34 clknet_3_3__leaf_clk clknet_3_3__leaf_clk:35 6.419700
35 clknet_3_3__leaf_clk clknet_3_3__leaf_clk:36 5.450500
36 clknet_3_3__leaf_clk clknet_3_3__leaf_clk:37 3.567600
37 clknet_3_3__leaf_clk clknet_3_3__leaf_clk:38 2.169100
38 clknet_3_3__leaf_clk clknet_3_3__leaf_clk:39 1.355700
39 clknet_3_3__leaf_clk clkload2:I 0.000000
40 clknet_3_3__leaf_clk _326_:CLK 0.000000
41 clknet_3_3__leaf_clk _338_:CLK 0.000000
42 clknet_3_3__leaf_clk _340_:CLK 0.000000
43 clknet_3_3__leaf_clk _342_:CLK 0.000000
44 clknet_3_3__leaf_clk _349_:CLK 0.000000
45 clknet_3_3__leaf_clk u_decoder\/_18_:CLK 0.000000
46 clknet_3_3__leaf_clk u_eop_detector\/_54_:CLK 0.000000
47 clknet_3_3__leaf_clk u_eop_detector\/_55_:CLK 0.000000
48 clknet_3_3__leaf_clk u_eop_detector\/_56_:CLK 0.000000
49 clknet_3_3__leaf_clk u_eop_detector\/_57_:CLK 0.000000
50 clknet_3_3__leaf_clk u_eop_detector\/_61_:CLK 0.000000
51 clknet_3_3__leaf_clk u_sync_detector\/_33_:CLK 0.000000
52 clknet_3_3__leaf_clk clkbuf_3_3__f_clk:Z 0.000000
*END

*D_NET clknet_3_4__leaf_clk 20.435967
*CONN
*P clknet_3_4__leaf_clk B
*I clkload3:I B
*I _298_:CLK B
*I _299_:CLK B
*I _300_:CLK B
*I _302_:CLK B
*I _303_:CLK B
*I _304_:CLK B
*I _305_:CLK B
*I u_line_state\/_7_:CLK B
*I clkbuf_3_4__f_clk:Z B
*CAP
1 clknet_3_4__leaf_clk 20.369823
2 clknet_3_4__leaf_clk int_rst_n 0.025898
3 clknet_3_4__leaf_clk line_state[0] 0.004628
4 clknet_3_4__leaf_clk line_state[1] 0.005454
5 clknet_3_4__leaf_clk next_byte[1] 0.004628
6 clknet_3_4__leaf_clk rxdm 0.011652
7 clknet_3_4__leaf_clk rxdp 0.004628
8 clknet_3_4__leaf_clk txdm 0.004628
9 clknet_3_4__leaf_clk u_line_state\/_2_ 0.004628
*RES
1 clknet_3_4__leaf_clk clknet_3_4__leaf_clk:2 22.591300
2 clknet_3_4__leaf_clk clknet_3_4__leaf_clk:3 9.112000
3 clknet_3_4__leaf_clk clknet_3_4__leaf_clk:4 8.518400
4 clknet_3_4__leaf_clk clknet_3_4__leaf_clk:5 19.078000
5 clknet_3_4__leaf_clk clknet_3_4__leaf_clk:6 8.886100
6 clknet_3_4__leaf_clk clknet_3_4__leaf_clk:7 14.119700
7 clknet_3_4__leaf_clk clknet_3_4__leaf_clk:8 10.110900
8 clknet_3_4__leaf_clk clknet_3_4__leaf_clk:9 11.931700
9 clknet_3_4__leaf_clk clknet_3_4__leaf_clk:10 16.529800
10 clknet_3_4__leaf_clk clknet_3_4__leaf_clk:11 17.059400
11 clknet_3_4__leaf_clk clknet_3_4__leaf_clk:12 15.863200
12 clknet_3_4__leaf_clk clknet_3_4__leaf_clk:13 15.137000
13 clknet_3_4__leaf_clk clknet_3_4__leaf_clk:14 14.949300
14 clknet_3_4__leaf_clk clknet_3_4__leaf_clk:15 18.635200
15 clknet_3_4__leaf_clk clknet_3_4__leaf_clk:16 20.503300
16 clknet_3_4__leaf_clk clknet_3_4__leaf_clk:17 15.319900
17 clknet_3_4__leaf_clk clknet_3_4__leaf_clk:18 49.960000
18 clknet_3_4__leaf_clk clknet_3_4__leaf_clk:19 78.393000
19 clknet_3_4__leaf_clk clknet_3_4__leaf_clk:20 106.609600
20 clknet_3_4__leaf_clk clknet_3_4__leaf_clk:21 78.254100
21 clknet_3_4__leaf_clk clknet_3_4__leaf_clk:22 44.581900
22 clknet_3_4__leaf_clk clknet_3_4__leaf_clk:23 57.796200
23 clknet_3_4__leaf_clk clknet_3_4__leaf_clk:24 24.955100
24 clknet_3_4__leaf_clk clknet_3_4__leaf_clk:25 34.032900
25 clknet_3_4__leaf_clk clknet_3_4__leaf_clk:26 45.374800
26 clknet_3_4__leaf_clk clknet_3_4__leaf_clk:27 84.070400
27 clknet_3_4__leaf_clk clknet_3_4__leaf_clk:28 83.864600
28 clknet_3_4__leaf_clk clknet_3_4__leaf_clk:29 52.004500
29 clknet_3_4__leaf_clk clknet_3_4__leaf_clk:30 111.732400
30 clknet_3_4__leaf_clk clknet_3_4__leaf_clk:31 28.339900
31 clknet_3_4__leaf_clk clknet_3_4__leaf_clk:32 38.053000
32 clknet_3_4__leaf_clk clknet_3_4__leaf_clk:33 49.779700
33 clknet_3_4__leaf_clk clknet_3_4__leaf_clk:34 33.846700
34 clknet_3_4__leaf_clk clknet_3_4__leaf_clk:35 27.528900
35 clknet_3_4__leaf_clk clknet_3_4__leaf_clk:36 24.224700
36 clknet_3_4__leaf_clk clknet_3_4__leaf_clk:37 26.152900
37 clknet_3_4__leaf_clk clknet_3_4__leaf_clk:38 25.039400
38 clknet_3_4__leaf_clk clknet_3_4__leaf_clk:39 32.748800
39 clknet_3_4__leaf_clk clknet_3_4__leaf_clk:40 31.254700
40 clknet_3_4__leaf_clk clknet_3_4__leaf_clk:41 31.878400
41 clknet_3_4__leaf_clk clkload3:I 0.000000
42 clknet_3_4__leaf_clk _298_:CLK 0.000000
43 clknet_3_4__leaf_clk _299_:CLK 0.000000
44 clknet_3_4__leaf_clk _300_:CLK 0.000000
45 clknet_3_4__leaf_clk _302_:CLK 0.000000
46 clknet_3_4__leaf_clk _303_:CLK 0.000000
47 clknet_3_4__leaf_clk _304_:CLK 0.000000
48 clknet_3_4__leaf_clk _305_:CLK 0.000000
49 clknet_3_4__leaf_clk u_line_state\/_7_:CLK 0.000000
50 clknet_3_4__leaf_clk clkbuf_3_4__f_clk:Z 0.000000
*END

*D_NET clknet_3_5__leaf_clk 20.520099
*CONN
*P clknet_3_5__leaf_clk B
*I clkload4:I B
*I _301_:CLK B
*I _329_:CLK B
*I _330_:CLK B
*I _331_:CLK B
*I _332_:CLK B
*I _333_:CLK B
*I _334_:CLK B
*I _335_:CLK B
*I _336_:CLK B
*I _337_:CLK B
*I _339_:CLK B
*I clkbuf_3_5__f_clk:Z B
*CAP
1 clknet_3_5__leaf_clk 20.506215
2 clknet_3_5__leaf_clk cur_byte[6] 0.004628
3 clknet_3_5__leaf_clk next_byte[1] 0.004628
4 clknet_3_5__leaf_clk tx_state[3] 0.004628
*RES
1 clknet_3_5__leaf_clk clknet_3_5__leaf_clk:2 16.741100
2 clknet_3_5__leaf_clk clknet_3_5__leaf_clk:3 15.657800
3 clknet_3_5__leaf_clk clknet_3_5__leaf_clk:4 20.410000
4 clknet_3_5__leaf_clk clknet_3_5__leaf_clk:5 18.033900
5 clknet_3_5__leaf_clk clknet_3_5__leaf_clk:6 18.995400
6 clknet_3_5__leaf_clk clknet_3_5__leaf_clk:7 21.276200
7 clknet_3_5__leaf_clk clknet_3_5__leaf_clk:8 60.404700
8 clknet_3_5__leaf_clk clknet_3_5__leaf_clk:9 32.086800
9 clknet_3_5__leaf_clk clknet_3_5__leaf_clk:10 57.820600
10 clknet_3_5__leaf_clk clknet_3_5__leaf_clk:11 10.178300
11 clknet_3_5__leaf_clk clknet_3_5__leaf_clk:12 61.832400
12 clknet_3_5__leaf_clk clknet_3_5__leaf_clk:13 47.950100
13 clknet_3_5__leaf_clk clknet_3_5__leaf_clk:14 87.960600
14 clknet_3_5__leaf_clk clknet_3_5__leaf_clk:15 27.230300
15 clknet_3_5__leaf_clk clknet_3_5__leaf_clk:16 48.884400
16 clknet_3_5__leaf_clk clknet_3_5__leaf_clk:17 57.486100
17 clknet_3_5__leaf_clk clknet_3_5__leaf_clk:18 57.368400
18 clknet_3_5__leaf_clk clknet_3_5__leaf_clk:19 55.252700
19 clknet_3_5__leaf_clk clknet_3_5__leaf_clk:20 83.858300
20 clknet_3_5__leaf_clk clknet_3_5__leaf_clk:21 65.127100
21 clknet_3_5__leaf_clk clknet_3_5__leaf_clk:22 27.349900
22 clknet_3_5__leaf_clk clknet_3_5__leaf_clk:23 22.557500
23 clknet_3_5__leaf_clk clknet_3_5__leaf_clk:24 55.316400
24 clknet_3_5__leaf_clk clknet_3_5__leaf_clk:25 48.505800
25 clknet_3_5__leaf_clk clknet_3_5__leaf_clk:26 64.625200
26 clknet_3_5__leaf_clk clknet_3_5__leaf_clk:27 5.516500
27 clknet_3_5__leaf_clk clknet_3_5__leaf_clk:28 43.100800
28 clknet_3_5__leaf_clk clknet_3_5__leaf_clk:29 57.242400
29 clknet_3_5__leaf_clk clknet_3_5__leaf_clk:30 13.973800
30 clknet_3_5__leaf_clk clknet_3_5__leaf_clk:31 18.907800
31 clknet_3_5__leaf_clk clknet_3_5__leaf_clk:32 20.091700
32 clknet_3_5__leaf_clk clknet_3_5__leaf_clk:33 23.019600
33 clknet_3_5__leaf_clk clknet_3_5__leaf_clk:34 21.474300
34 clknet_3_5__leaf_clk clknet_3_5__leaf_clk:35 15.554600
35 clknet_3_5__leaf_clk clknet_3_5__leaf_clk:36 19.214000
36 clknet_3_5__leaf_clk clknet_3_5__leaf_clk:37 17.318100
37 clknet_3_5__leaf_clk clkload4:I 0.000000
38 clknet_3_5__leaf_clk _301_:CLK 0.000000
39 clknet_3_5__leaf_clk _329_:CLK 0.000000
40 clknet_3_5__leaf_clk _330_:CLK 0.000000
41 clknet_3_5__leaf_clk _331_:CLK 0.000000
42 clknet_3_5__leaf_clk _332_:CLK 0.000000
43 clknet_3_5__leaf_clk _333_:CLK 0.000000
44 clknet_3_5__leaf_clk _334_:CLK 0.000000
45 clknet_3_5__leaf_clk _335_:CLK 0.000000
46 clknet_3_5__leaf_clk _336_:CLK 0.000000
47 clknet_3_5__leaf_clk _337_:CLK 0.000000
48 clknet_3_5__leaf_clk _339_:CLK 0.000000
49 clknet_3_5__leaf_clk clkbuf_3_5__f_clk:Z 0.000000
*END

*D_NET clknet_3_6__leaf_clk 15.500105
*CONN
*P clknet_3_6__leaf_clk B
*I clkload5:I B
*I _341_:CLK B
*I _345_:CLK B
*I _346_:CLK B
*I _347_:CLK B
*I u_encoder\/_14_:CLK B
*I u_encoder\/_15_:CLK B
*I u_stuffer\/_44_:CLK B
*I clkbuf_3_6__f_clk:Z B
*CAP
1 clknet_3_6__leaf_clk 15.445989
2 clknet_3_6__leaf_clk enc_line_bit 0.004628
3 clknet_3_6__leaf_clk enc_line_valid 0.013883
4 clknet_3_6__leaf_clk int_rst_n 0.009255
5 clknet_3_6__leaf_clk tx_state[2] 0.009255
6 clknet_3_6__leaf_clk tx_state[4] 0.006280
7 clknet_3_6__leaf_clk tx_state[6] 0.000578
8 clknet_3_6__leaf_clk u_encoder\/_00_ 0.004628
9 clknet_3_6__leaf_clk u_encoder\/_01_ 0.004628
10 clknet_3_6__leaf_clk u_encoder\/_04_ 0.000981
*RES
1 clknet_3_6__leaf_clk clknet_3_6__leaf_clk:2 34.958500
2 clknet_3_6__leaf_clk clknet_3_6__leaf_clk:3 32.641800
3 clknet_3_6__leaf_clk clknet_3_6__leaf_clk:4 33.693500
4 clknet_3_6__leaf_clk clknet_3_6__leaf_clk:5 31.824500
5 clknet_3_6__leaf_clk clknet_3_6__leaf_clk:6 30.962300
6 clknet_3_6__leaf_clk clknet_3_6__leaf_clk:7 30.938900
7 clknet_3_6__leaf_clk clknet_3_6__leaf_clk:8 31.260100
8 clknet_3_6__leaf_clk clknet_3_6__leaf_clk:9 31.190500
9 clknet_3_6__leaf_clk clknet_3_6__leaf_clk:10 29.319600
10 clknet_3_6__leaf_clk clknet_3_6__leaf_clk:11 24.481400
11 clknet_3_6__leaf_clk clknet_3_6__leaf_clk:12 24.495400
12 clknet_3_6__leaf_clk clknet_3_6__leaf_clk:13 24.855400
13 clknet_3_6__leaf_clk clknet_3_6__leaf_clk:14 25.546700
14 clknet_3_6__leaf_clk clknet_3_6__leaf_clk:15 26.543500
15 clknet_3_6__leaf_clk clknet_3_6__leaf_clk:16 27.812900
16 clknet_3_6__leaf_clk clknet_3_6__leaf_clk:17 24.813900
17 clknet_3_6__leaf_clk clknet_3_6__leaf_clk:18 66.546500
18 clknet_3_6__leaf_clk clknet_3_6__leaf_clk:19 29.275200
19 clknet_3_6__leaf_clk clknet_3_6__leaf_clk:20 36.163200
20 clknet_3_6__leaf_clk clknet_3_6__leaf_clk:21 36.171800
21 clknet_3_6__leaf_clk clknet_3_6__leaf_clk:22 21.078400
22 clknet_3_6__leaf_clk clknet_3_6__leaf_clk:23 38.765700
23 clknet_3_6__leaf_clk clknet_3_6__leaf_clk:24 53.969700
24 clknet_3_6__leaf_clk clknet_3_6__leaf_clk:25 33.846000
25 clknet_3_6__leaf_clk clknet_3_6__leaf_clk:26 42.767800
26 clknet_3_6__leaf_clk clknet_3_6__leaf_clk:27 23.800200
27 clknet_3_6__leaf_clk clknet_3_6__leaf_clk:28 61.902200
28 clknet_3_6__leaf_clk clknet_3_6__leaf_clk:29 36.582300
29 clknet_3_6__leaf_clk clknet_3_6__leaf_clk:30 16.451200
30 clknet_3_6__leaf_clk clknet_3_6__leaf_clk:31 48.011600
31 clknet_3_6__leaf_clk clknet_3_6__leaf_clk:32 36.238700
32 clknet_3_6__leaf_clk clknet_3_6__leaf_clk:33 43.258600
33 clknet_3_6__leaf_clk clknet_3_6__leaf_clk:34 42.645300
34 clknet_3_6__leaf_clk clknet_3_6__leaf_clk:35 42.005800
35 clknet_3_6__leaf_clk clknet_3_6__leaf_clk:36 42.225800
36 clknet_3_6__leaf_clk clknet_3_6__leaf_clk:37 35.515100
37 clknet_3_6__leaf_clk clknet_3_6__leaf_clk:38 34.766500
38 clknet_3_6__leaf_clk clknet_3_6__leaf_clk:39 35.021100
39 clknet_3_6__leaf_clk clkload5:I 0.000000
40 clknet_3_6__leaf_clk _341_:CLK 0.000000
41 clknet_3_6__leaf_clk _345_:CLK 0.000000
42 clknet_3_6__leaf_clk _346_:CLK 0.000000
43 clknet_3_6__leaf_clk _347_:CLK 0.000000
44 clknet_3_6__leaf_clk u_encoder\/_14_:CLK 0.000000
45 clknet_3_6__leaf_clk u_encoder\/_15_:CLK 0.000000
46 clknet_3_6__leaf_clk u_stuffer\/_44_:CLK 0.000000
47 clknet_3_6__leaf_clk clkbuf_3_6__f_clk:Z 0.000000
*END

*D_NET clknet_3_7__leaf_clk 21.344859
*CONN
*P clknet_3_7__leaf_clk B
*I clkload6:I B
*I _327_:CLK B
*I _328_:CLK B
*I _343_:CLK B
*I _344_:CLK B
*I _348_:CLK B
*I u_stuffer\/_39_:CLK B
*I u_stuffer\/_40_:CLK B
*I u_stuffer\/_41_:CLK B
*I u_stuffer\/_42_:CLK B
*I u_stuffer\/_43_:CLK B
*I clkbuf_3_7__f_clk:Z B
*CAP
1 clknet_3_7__leaf_clk 21.208309
2 clknet_3_7__leaf_clk int_rst_n 0.009255
3 clknet_3_7__leaf_clk stuff_in_ready 0.009255
4 clknet_3_7__leaf_clk stuff_out_bit 0.004628
5 clknet_3_7__leaf_clk stuffer_in_bit 0.004628
6 clknet_3_7__leaf_clk stuffer_in_valid 0.016610
7 clknet_3_7__leaf_clk tx_bitidx[0] 0.005609
8 clknet_3_7__leaf_clk tx_state[2] 0.004628
9 clknet_3_7__leaf_clk tx_state[5] 0.009255
10 clknet_3_7__leaf_clk u_stuffer\/_00_ 0.008099
11 clknet_3_7__leaf_clk u_stuffer\/_04_ 0.016218
12 clknet_3_7__leaf_clk u_stuffer\/_05_ 0.004628
13 clknet_3_7__leaf_clk u_stuffer\/_07_ 0.005454
14 clknet_3_7__leaf_clk u_stuffer\/_08_ 0.005227
15 clknet_3_7__leaf_clk u_stuffer\/_10_ 0.004628
16 clknet_3_7__leaf_clk u_stuffer\/_11_ 0.009255
17 clknet_3_7__leaf_clk u_stuffer\/_17_ 0.004628
18 clknet_3_7__leaf_clk u_stuffer\/ones[0] 0.009917
19 clknet_3_7__leaf_clk u_stuffer\/ones[1] 0.004628
*RES
1 clknet_3_7__leaf_clk clknet_3_7__leaf_clk:2 17.720100
2 clknet_3_7__leaf_clk clknet_3_7__leaf_clk:3 14.670600
3 clknet_3_7__leaf_clk clknet_3_7__leaf_clk:4 20.684900
4 clknet_3_7__leaf_clk clknet_3_7__leaf_clk:5 18.647000
5 clknet_3_7__leaf_clk clknet_3_7__leaf_clk:6 16.638300
6 clknet_3_7__leaf_clk clknet_3_7__leaf_clk:7 19.391200
7 clknet_3_7__leaf_clk clknet_3_7__leaf_clk:8 21.149800
8 clknet_3_7__leaf_clk clknet_3_7__leaf_clk:9 22.975700
9 clknet_3_7__leaf_clk clknet_3_7__leaf_clk:10 38.199800
10 clknet_3_7__leaf_clk clknet_3_7__leaf_clk:11 29.979700
11 clknet_3_7__leaf_clk clknet_3_7__leaf_clk:12 66.575700
12 clknet_3_7__leaf_clk clknet_3_7__leaf_clk:13 60.247900
13 clknet_3_7__leaf_clk clknet_3_7__leaf_clk:14 80.192300
14 clknet_3_7__leaf_clk clknet_3_7__leaf_clk:15 49.051300
15 clknet_3_7__leaf_clk clknet_3_7__leaf_clk:16 43.565300
16 clknet_3_7__leaf_clk clknet_3_7__leaf_clk:17 49.244300
17 clknet_3_7__leaf_clk clknet_3_7__leaf_clk:18 74.826200
18 clknet_3_7__leaf_clk clknet_3_7__leaf_clk:19 40.788400
19 clknet_3_7__leaf_clk clknet_3_7__leaf_clk:20 71.257300
20 clknet_3_7__leaf_clk clknet_3_7__leaf_clk:21 75.804900
21 clknet_3_7__leaf_clk clknet_3_7__leaf_clk:22 47.173300
22 clknet_3_7__leaf_clk clknet_3_7__leaf_clk:23 46.558700
23 clknet_3_7__leaf_clk clknet_3_7__leaf_clk:24 63.274600
24 clknet_3_7__leaf_clk clknet_3_7__leaf_clk:25 39.472600
25 clknet_3_7__leaf_clk clknet_3_7__leaf_clk:26 34.838700
26 clknet_3_7__leaf_clk clknet_3_7__leaf_clk:27 28.528600
27 clknet_3_7__leaf_clk clknet_3_7__leaf_clk:28 44.787700
28 clknet_3_7__leaf_clk clknet_3_7__leaf_clk:29 56.710400
29 clknet_3_7__leaf_clk clknet_3_7__leaf_clk:30 11.854200
30 clknet_3_7__leaf_clk clknet_3_7__leaf_clk:31 15.793000
31 clknet_3_7__leaf_clk clknet_3_7__leaf_clk:32 17.101800
32 clknet_3_7__leaf_clk clknet_3_7__leaf_clk:33 20.159400
33 clknet_3_7__leaf_clk clknet_3_7__leaf_clk:34 18.568800
34 clknet_3_7__leaf_clk clknet_3_7__leaf_clk:35 13.564300
35 clknet_3_7__leaf_clk clknet_3_7__leaf_clk:36 17.284400
36 clknet_3_7__leaf_clk clknet_3_7__leaf_clk:37 15.386100
37 clknet_3_7__leaf_clk clkload6:I 0.000000
38 clknet_3_7__leaf_clk _327_:CLK 0.000000
39 clknet_3_7__leaf_clk _328_:CLK 0.000000
40 clknet_3_7__leaf_clk _343_:CLK 0.000000
41 clknet_3_7__leaf_clk _344_:CLK 0.000000
42 clknet_3_7__leaf_clk _348_:CLK 0.000000
43 clknet_3_7__leaf_clk u_stuffer\/_39_:CLK 0.000000
44 clknet_3_7__leaf_clk u_stuffer\/_40_:CLK 0.000000
45 clknet_3_7__leaf_clk u_stuffer\/_41_:CLK 0.000000
46 clknet_3_7__leaf_clk u_stuffer\/_42_:CLK 0.000000
47 clknet_3_7__leaf_clk u_stuffer\/_43_:CLK 0.000000
48 clknet_3_7__leaf_clk clkbuf_3_7__f_clk:Z 0.000000
*END

*D_NET cur_byte\[0\] 2.810993
*CONN
*P cur_byte\[0\] B
*I _330_:Q B
*I _193_:I B
*I _181_:I0 B
*CAP
1 cur_byte[0] 2.810993
*RES
1 cur_byte[0] cur_byte\[0\]:2 11.038800
2 cur_byte[0] cur_byte\[0\]:3 10.339800
3 cur_byte[0] cur_byte\[0\]:4 39.800500
4 cur_byte[0] cur_byte\[0\]:5 56.802500
5 cur_byte[0] cur_byte\[0\]:6 41.592200
6 cur_byte[0] cur_byte\[0\]:7 59.747100
7 cur_byte[0] _330_:Q 0.000000
8 cur_byte[0] _193_:I 0.000000
9 cur_byte[0] _181_:I0 0.000000
*END

*D_NET cur_byte\[1\] 1.364854
*CONN
*P cur_byte\[1\] B
*I _331_:Q B
*I _177_:I B
*CAP
1 cur_byte[1] 1.364854
*RES
1 cur_byte[1] cur_byte\[1\]:2 10.928100
2 cur_byte[1] cur_byte\[1\]:3 30.327300
3 cur_byte[1] cur_byte\[1\]:4 31.439400
4 cur_byte[1] cur_byte\[1\]:5 10.059600
5 cur_byte[1] _331_:Q 0.000000
6 cur_byte[1] _177_:I 0.000000
*END

*D_NET cur_byte\[2\] 2.495608
*CONN
*P cur_byte\[2\] B
*I _332_:Q B
*I _295_:I B
*I _181_:I2 B
*CAP
1 cur_byte[2] 2.495608
*RES
1 cur_byte[2] cur_byte\[2\]:2 32.378800
2 cur_byte[2] cur_byte\[2\]:3 22.585800
3 cur_byte[2] cur_byte\[2\]:4 39.095800
4 cur_byte[2] cur_byte\[2\]:5 32.871800
5 cur_byte[2] cur_byte\[2\]:6 18.480800
6 cur_byte[2] cur_byte\[2\]:7 37.847900
7 cur_byte[2] _332_:Q 0.000000
8 cur_byte[2] _295_:I 0.000000
9 cur_byte[2] _181_:I2 0.000000
*END

*D_NET cur_byte\[3\] 1.666905
*CONN
*P cur_byte\[3\] B
*I _333_:Q B
*I _175_:I B
*CAP
1 cur_byte[3] 1.666905
*RES
1 cur_byte[3] cur_byte\[3\]:2 16.093000
2 cur_byte[3] cur_byte\[3\]:3 25.823500
3 cur_byte[3] cur_byte\[3\]:4 26.361100
4 cur_byte[3] cur_byte\[3\]:5 16.007600
5 cur_byte[3] _333_:Q 0.000000
6 cur_byte[3] _175_:I 0.000000
*END

*D_NET cur_byte\[4\] 3.292517
*CONN
*P cur_byte\[4\] B
*I _334_:Q B
*I _290_:I B
*I _181_:I1 B
*CAP
1 cur_byte[4] 3.292517
*RES
1 cur_byte[4] cur_byte\[4\]:2 36.596900
2 cur_byte[4] cur_byte\[4\]:3 25.894500
3 cur_byte[4] cur_byte\[4\]:4 19.841700
4 cur_byte[4] cur_byte\[4\]:5 15.453500
5 cur_byte[4] cur_byte\[4\]:6 49.335900
6 cur_byte[4] cur_byte\[4\]:7 38.824300
7 cur_byte[4] _334_:Q 0.000000
8 cur_byte[4] _290_:I 0.000000
9 cur_byte[4] _181_:I1 0.000000
*END

*D_NET cur_byte\[5\] 1.335142
*CONN
*P cur_byte\[5\] B
*I _335_:Q B
*I _178_:I B
*CAP
1 cur_byte[5] 1.335142
*RES
1 cur_byte[5] cur_byte\[5\]:2 10.904400
2 cur_byte[5] cur_byte\[5\]:3 30.261300
3 cur_byte[5] cur_byte\[5\]:4 31.371000
4 cur_byte[5] cur_byte\[5\]:5 10.037700
5 cur_byte[5] _335_:Q 0.000000
6 cur_byte[5] _178_:I 0.000000
*END

*D_NET cur_byte\[6\] 3.135130
*CONN
*P cur_byte\[6\] B
*I _336_:Q B
*I _282_:I B
*I _181_:I3 B
*CAP
1 cur_byte[6] 3.135130
*RES
1 cur_byte[6] cur_byte\[6\]:2 37.434800
2 cur_byte[6] cur_byte\[6\]:3 49.485500
3 cur_byte[6] cur_byte\[6\]:4 33.790800
4 cur_byte[6] cur_byte\[6\]:5 43.726200
5 cur_byte[6] cur_byte\[6\]:6 5.676300
6 cur_byte[6] cur_byte\[6\]:7 16.009300
7 cur_byte[6] _336_:Q 0.000000
8 cur_byte[6] _282_:I 0.000000
9 cur_byte[6] _181_:I3 0.000000
*END

*D_NET cur_byte\[7\] 1.772880
*CONN
*P cur_byte\[7\] B
*I _337_:Q B
*I _176_:I B
*CAP
1 cur_byte[7] 1.772880
*RES
1 cur_byte[7] cur_byte\[7\]:2 17.151600
2 cur_byte[7] cur_byte\[7\]:3 25.043200
3 cur_byte[7] cur_byte\[7\]:4 25.465300
4 cur_byte[7] cur_byte\[7\]:5 17.130000
5 cur_byte[7] _337_:Q 0.000000
6 cur_byte[7] _176_:I 0.000000
*END

*D_NET dec_data_bit 13.447931
*CONN
*P dec_data_bit B
*I u_sync_detector\/_18_:A2 B
*I u_destuffer\/_28_:A1 B
*I u_destuffer\/_24_:A1 B
*I u_decoder\/_19_:Q B
*I u_decoder\/_11_:A2 B
*CAP
1 dec_data_bit 13.304196
2 dec_data_bit dec_data_valid 0.009917
3 dec_data_bit dec_line_valid 0.004628
4 dec_data_bit destuff_in_valid 0.004628
5 dec_data_bit int_rst_n 0.031568
6 dec_data_bit sync_next 0.005289
7 dec_data_bit u_decoder\/_00_ 0.009255
8 dec_data_bit u_decoder\/_02_ 0.004628
9 dec_data_bit u_destuffer\/_07_ 0.008429
10 dec_data_bit u_destuffer\/_08_ 0.014810
11 dec_data_bit u_destuffer\/_09_ 0.025612
12 dec_data_bit u_destuffer\/_10_ 0.004628
13 dec_data_bit u_destuffer\/_11_ 0.012493
14 dec_data_bit u_destuffer\/ones[0] 0.004049
15 dec_data_bit u_sync_detector\/_07_ 0.003801
*RES
1 dec_data_bit dec_data_bit:2 19.055300
2 dec_data_bit dec_data_bit:3 26.822500
3 dec_data_bit dec_data_bit:4 11.514200
4 dec_data_bit dec_data_bit:5 23.617600
5 dec_data_bit dec_data_bit:6 14.341100
6 dec_data_bit dec_data_bit:7 42.247100
7 dec_data_bit dec_data_bit:8 32.345600
8 dec_data_bit dec_data_bit:9 45.342100
9 dec_data_bit dec_data_bit:10 34.984100
10 dec_data_bit dec_data_bit:11 50.228700
11 dec_data_bit dec_data_bit:12 51.171800
12 dec_data_bit dec_data_bit:13 59.544800
13 dec_data_bit dec_data_bit:14 58.834600
14 dec_data_bit dec_data_bit:15 54.545600
15 dec_data_bit dec_data_bit:16 21.056100
16 dec_data_bit dec_data_bit:17 31.007700
17 dec_data_bit dec_data_bit:18 27.999500
18 dec_data_bit dec_data_bit:19 72.145000
19 dec_data_bit dec_data_bit:20 39.072000
20 dec_data_bit dec_data_bit:21 47.828100
21 dec_data_bit dec_data_bit:22 50.330000
22 dec_data_bit dec_data_bit:23 41.032100
23 dec_data_bit dec_data_bit:24 79.487100
24 dec_data_bit dec_data_bit:25 62.695000
25 dec_data_bit dec_data_bit:26 57.811200
26 dec_data_bit dec_data_bit:27 56.361500
27 dec_data_bit dec_data_bit:28 49.065800
28 dec_data_bit dec_data_bit:29 57.333600
29 dec_data_bit u_sync_detector\/_18_:A2 0.000000
30 dec_data_bit u_destuffer\/_28_:A1 0.000000
31 dec_data_bit u_destuffer\/_24_:A1 0.000000
32 dec_data_bit u_decoder\/_19_:Q 0.000000
33 dec_data_bit u_decoder\/_11_:A2 0.000000
*END

*D_NET dec_data_valid 11.390492
*CONN
*P dec_data_valid B
*I u_sync_detector\/_30_:A2 B
*I u_sync_detector\/_27_:A2 B
*I u_sync_detector\/_22_:A2 B
*I u_sync_detector\/_18_:A1 B
*I u_decoder\/_20_:Q B
*I _169_:A2 B
*CAP
1 dec_data_valid 11.257996
2 dec_data_valid destuff_in_valid 0.004628
3 dec_data_valid int_rst_n 0.004628
4 dec_data_valid rx_receiving 0.004628
5 dec_data_valid u_decoder\/_02_ 0.004628
6 dec_data_valid u_destuffer\/_07_ 0.004628
7 dec_data_valid u_destuffer\/_10_ 0.012230
8 dec_data_valid u_sync_detector\/_02_ 0.004628
9 dec_data_valid u_sync_detector\/_03_ 0.004628
10 dec_data_valid u_sync_detector\/_06_ 0.005646
11 dec_data_valid u_sync_detector\/_07_ 0.003801
12 dec_data_valid u_sync_detector\/_10_ 0.009255
13 dec_data_valid u_sync_detector\/_13_ 0.009255
14 dec_data_valid u_sync_detector\/_14_ 0.010082
15 dec_data_valid u_sync_detector\/match[0] 0.022643
16 dec_data_valid u_sync_detector\/match[1] 0.013057
17 dec_data_valid u_sync_detector\/match[2] 0.014131
*RES
1 dec_data_valid dec_data_valid:2 7.798100
2 dec_data_valid dec_data_valid:3 9.066100
3 dec_data_valid dec_data_valid:4 10.698000
4 dec_data_valid dec_data_valid:5 7.632000
5 dec_data_valid dec_data_valid:6 4.668000
6 dec_data_valid dec_data_valid:7 1.628900
7 dec_data_valid dec_data_valid:8 13.291700
8 dec_data_valid dec_data_valid:9 76.485700
9 dec_data_valid dec_data_valid:10 10.721900
10 dec_data_valid dec_data_valid:11 82.801600
11 dec_data_valid dec_data_valid:12 54.647600
12 dec_data_valid dec_data_valid:13 68.764200
13 dec_data_valid dec_data_valid:14 72.719100
14 dec_data_valid dec_data_valid:15 57.273100
15 dec_data_valid dec_data_valid:16 60.031700
16 dec_data_valid dec_data_valid:17 58.559900
17 dec_data_valid dec_data_valid:18 87.999700
18 dec_data_valid dec_data_valid:19 86.432200
19 dec_data_valid u_sync_detector\/_30_:A2 0.000000
20 dec_data_valid u_sync_detector\/_27_:A2 0.000000
21 dec_data_valid u_sync_detector\/_22_:A2 0.000000
22 dec_data_valid u_sync_detector\/_18_:A1 0.000000
23 dec_data_valid u_decoder\/_20_:Q 0.000000
24 dec_data_valid _169_:A2 0.000000
*END

*D_NET dec_line_bit 4.172336
*CONN
*P dec_line_bit B
*I u_decoder\/_15_:A1 B
*I u_decoder\/_09_:A2 B
*I _171_:ZN B
*CAP
1 dec_line_bit 4.113581
2 dec_line_bit dec_line_valid 0.009255
3 dec_line_bit int_rst_n 0.013883
4 dec_line_bit line_state[0] 0.004628
5 dec_line_bit line_state[1] 0.004055
6 dec_line_bit u_decoder\/_08_ 0.018505
7 dec_line_bit u_decoder\/prev_line 0.008429
*RES
1 dec_line_bit dec_line_bit:2 18.361900
2 dec_line_bit dec_line_bit:3 31.463100
3 dec_line_bit dec_line_bit:4 50.832900
4 dec_line_bit dec_line_bit:5 35.119800
5 dec_line_bit dec_line_bit:6 42.897800
6 dec_line_bit dec_line_bit:7 13.562200
7 dec_line_bit dec_line_bit:8 19.191300
8 dec_line_bit dec_line_bit:9 33.519000
9 dec_line_bit dec_line_bit:10 38.170700
10 dec_line_bit u_decoder\/_15_:A1 0.000000
11 dec_line_bit u_decoder\/_09_:A2 0.000000
12 dec_line_bit _171_:ZN 0.000000
*END

*D_NET dec_line_valid 7.932525
*CONN
*P dec_line_valid B
*I u_decoder\/_17_:A1 B
*I u_decoder\/_16_:A2 B
*I u_decoder\/_15_:A2 B
*I u_decoder\/_12_:A1 B
*I u_decoder\/_11_:A1 B
*I _172_:Z B
*CAP
1 dec_line_valid 7.842150
2 dec_line_valid int_rst_n 0.013883
3 dec_line_valid line_state[0] 0.004628
4 dec_line_valid line_state[1] 0.003801
5 dec_line_valid rx_receiving 0.011705
6 dec_line_valid u_decoder\/_00_ 0.013883
7 dec_line_valid u_decoder\/_01_ 0.009255
8 dec_line_valid u_decoder\/_04_ 0.009255
9 dec_line_valid u_decoder\/_06_ 0.004628
10 dec_line_valid u_decoder\/_07_ 0.009255
11 dec_line_valid u_decoder\/_08_ 0.005454
12 dec_line_valid u_decoder\/prev_line 0.004628
*RES
1 dec_line_valid dec_line_valid:2 47.641800
2 dec_line_valid dec_line_valid:3 54.136500
3 dec_line_valid dec_line_valid:4 27.944400
4 dec_line_valid dec_line_valid:5 31.199200
5 dec_line_valid dec_line_valid:6 33.678000
6 dec_line_valid dec_line_valid:7 4.018800
7 dec_line_valid dec_line_valid:8 36.973700
8 dec_line_valid dec_line_valid:9 32.540400
9 dec_line_valid dec_line_valid:10 25.152400
10 dec_line_valid dec_line_valid:11 7.157300
11 dec_line_valid dec_line_valid:12 20.053200
12 dec_line_valid dec_line_valid:13 19.399300
13 dec_line_valid dec_line_valid:14 59.688700
14 dec_line_valid dec_line_valid:15 56.776300
15 dec_line_valid dec_line_valid:16 57.451600
16 dec_line_valid dec_line_valid:17 54.488400
17 dec_line_valid u_decoder\/_17_:A1 0.000000
18 dec_line_valid u_decoder\/_16_:A2 0.000000
19 dec_line_valid u_decoder\/_15_:A2 0.000000
20 dec_line_valid u_decoder\/_12_:A1 0.000000
21 dec_line_valid u_decoder\/_11_:A1 0.000000
22 dec_line_valid _172_:Z 0.000000
*END

*D_NET destuff_in_valid 15.410074
*CONN
*P destuff_in_valid B
*I u_destuffer\/_35_:A1 B
*I u_destuffer\/_31_:A1 B
*I u_destuffer\/_29_:A1 B
*I u_destuffer\/_27_:I B
*I u_destuffer\/_24_:A2 B
*I _169_:Z B
*CAP
1 destuff_in_valid 15.253217
2 destuff_in_valid int_rst_n 0.009917
3 destuff_in_valid u_decoder\/_00_ 0.013057
4 destuff_in_valid u_decoder\/_02_ 0.004628
5 destuff_in_valid u_destuffer\/_01_ 0.000826
6 destuff_in_valid u_destuffer\/_02_ 0.007603
7 destuff_in_valid u_destuffer\/_07_ 0.004628
8 destuff_in_valid u_destuffer\/_08_ 0.016563
9 destuff_in_valid u_destuffer\/_09_ 0.004628
10 destuff_in_valid u_destuffer\/_10_ 0.011121
11 destuff_in_valid u_destuffer\/_11_ 0.007603
12 destuff_in_valid u_destuffer\/_12_ 0.010038
13 destuff_in_valid u_destuffer\/_13_ 0.007738
14 destuff_in_valid u_destuffer\/_14_ 0.008429
15 destuff_in_valid u_destuffer\/_16_ 0.009255
16 destuff_in_valid u_destuffer\/ones[0] 0.031568
17 destuff_in_valid u_destuffer\/ones[1] 0.009255
*RES
1 destuff_in_valid destuff_in_valid:2 29.112600
2 destuff_in_valid destuff_in_valid:3 23.160600
3 destuff_in_valid destuff_in_valid:4 54.532000
4 destuff_in_valid destuff_in_valid:5 44.203100
5 destuff_in_valid destuff_in_valid:6 36.766100
6 destuff_in_valid destuff_in_valid:7 46.750700
7 destuff_in_valid destuff_in_valid:8 41.543500
8 destuff_in_valid destuff_in_valid:9 62.274500
9 destuff_in_valid destuff_in_valid:10 65.241500
10 destuff_in_valid destuff_in_valid:11 62.914300
11 destuff_in_valid destuff_in_valid:12 52.199700
12 destuff_in_valid destuff_in_valid:13 49.549900
13 destuff_in_valid destuff_in_valid:14 60.221400
14 destuff_in_valid destuff_in_valid:15 55.571300
15 destuff_in_valid destuff_in_valid:16 52.191600
16 destuff_in_valid destuff_in_valid:17 50.709900
17 destuff_in_valid destuff_in_valid:18 48.135900
18 destuff_in_valid destuff_in_valid:19 54.954600
19 destuff_in_valid destuff_in_valid:20 52.338200
20 destuff_in_valid destuff_in_valid:21 21.955100
21 destuff_in_valid destuff_in_valid:22 74.332500
22 destuff_in_valid destuff_in_valid:23 73.992900
23 destuff_in_valid destuff_in_valid:24 27.851800
24 destuff_in_valid destuff_in_valid:25 23.851900
25 destuff_in_valid destuff_in_valid:26 26.231700
26 destuff_in_valid destuff_in_valid:27 24.883000
27 destuff_in_valid destuff_in_valid:28 27.542000
28 destuff_in_valid destuff_in_valid:29 18.087000
29 destuff_in_valid destuff_in_valid:30 19.880700
30 destuff_in_valid destuff_in_valid:31 20.309900
31 destuff_in_valid destuff_in_valid:32 16.664900
32 destuff_in_valid destuff_in_valid:33 57.739600
33 destuff_in_valid u_destuffer\/_35_:A1 0.000000
34 destuff_in_valid u_destuffer\/_31_:A1 0.000000
35 destuff_in_valid u_destuffer\/_29_:A1 0.000000
36 destuff_in_valid u_destuffer\/_27_:I 0.000000
37 destuff_in_valid u_destuffer\/_24_:A2 0.000000
38 destuff_in_valid _169_:Z 0.000000
*END

*D_NET destuff_out_bit 5.920311
*CONN
*P destuff_out_bit B
*I u_destuffer\/_48_:Q B
*I u_destuffer\/_39_:I B
*I _248_:I0 B
*I _240_:I1 B
*CAP
1 destuff_out_bit 5.879075
2 destuff_out_bit destuff_out_valid 0.004628
3 destuff_out_bit rx_bitcnt[2] 0.004628
4 destuff_out_bit u_destuffer\/_05_ 0.004628
5 destuff_out_bit u_destuffer\/_20_ 0.009255
6 destuff_out_bit u_destuffer\/ones[1] 0.008842
7 destuff_out_bit u_destuffer\/ones[2] 0.009255
*RES
1 destuff_out_bit destuff_out_bit:2 50.624900
2 destuff_out_bit destuff_out_bit:3 45.667400
3 destuff_out_bit destuff_out_bit:4 37.071200
4 destuff_out_bit destuff_out_bit:5 31.192100
5 destuff_out_bit destuff_out_bit:6 26.305600
6 destuff_out_bit destuff_out_bit:7 41.692400
7 destuff_out_bit destuff_out_bit:8 40.754000
8 destuff_out_bit destuff_out_bit:9 35.420300
9 destuff_out_bit u_destuffer\/_48_:Q 0.000000
10 destuff_out_bit u_destuffer\/_39_:I 0.000000
11 destuff_out_bit _248_:I0 0.000000
12 destuff_out_bit _240_:I1 0.000000
*END

*D_NET destuff_out_valid 23.049388
*CONN
*P destuff_out_valid B
*I _240_:S B
*I _263_:S B
*I _265_:S B
*I _267_:S B
*I _269_:S B
*I _272_:S B
*I _274_:S B
*I _278_:A2 B
*I _280_:A2 B
*I _281_:A2 B
*I u_destuffer\/_49_:Q B
*I _232_:A2 B
*CAP
1 destuff_out_valid 22.949332
2 destuff_out_valid rx_bitcnt[0] 0.004628
3 destuff_out_valid rx_bitcnt[1] 0.015536
4 destuff_out_valid rx_shift[2] 0.027843
5 destuff_out_valid rx_shift[3] 0.009903
6 destuff_out_valid rx_shift[4] 0.008429
7 destuff_out_valid rx_shift[5] 0.007603
8 destuff_out_valid rx_shift[6] 0.013057
9 destuff_out_valid rx_shift[7] 0.013057
*RES
1 destuff_out_valid destuff_out_valid:2 24.697500
2 destuff_out_valid destuff_out_valid:3 19.258300
3 destuff_out_valid destuff_out_valid:4 58.189900
4 destuff_out_valid destuff_out_valid:5 56.382100
5 destuff_out_valid destuff_out_valid:6 81.388900
6 destuff_out_valid destuff_out_valid:7 35.006700
7 destuff_out_valid destuff_out_valid:8 23.034900
8 destuff_out_valid destuff_out_valid:9 68.961400
9 destuff_out_valid destuff_out_valid:10 62.519100
10 destuff_out_valid destuff_out_valid:11 87.088100
11 destuff_out_valid destuff_out_valid:12 68.769300
12 destuff_out_valid destuff_out_valid:13 79.488800
13 destuff_out_valid destuff_out_valid:14 70.647600
14 destuff_out_valid destuff_out_valid:15 29.098700
15 destuff_out_valid destuff_out_valid:16 60.382000
16 destuff_out_valid destuff_out_valid:17 89.552800
17 destuff_out_valid destuff_out_valid:18 61.029700
18 destuff_out_valid destuff_out_valid:19 28.814600
19 destuff_out_valid destuff_out_valid:20 39.729100
20 destuff_out_valid destuff_out_valid:21 89.961200
21 destuff_out_valid destuff_out_valid:22 71.251900
22 destuff_out_valid destuff_out_valid:23 84.044600
23 destuff_out_valid destuff_out_valid:24 18.066400
24 destuff_out_valid destuff_out_valid:25 61.176400
25 destuff_out_valid destuff_out_valid:26 69.657900
26 destuff_out_valid destuff_out_valid:27 88.585400
27 destuff_out_valid destuff_out_valid:28 85.767600
28 destuff_out_valid destuff_out_valid:29 36.720600
29 destuff_out_valid destuff_out_valid:30 65.935700
30 destuff_out_valid destuff_out_valid:31 64.958900
31 destuff_out_valid destuff_out_valid:32 66.888600
32 destuff_out_valid destuff_out_valid:33 22.001300
33 destuff_out_valid destuff_out_valid:34 65.008900
34 destuff_out_valid destuff_out_valid:35 17.500700
35 destuff_out_valid destuff_out_valid:36 56.934400
36 destuff_out_valid destuff_out_valid:37 68.110200
37 destuff_out_valid destuff_out_valid:38 17.544800
38 destuff_out_valid destuff_out_valid:39 64.034800
39 destuff_out_valid _240_:S 0.000000
40 destuff_out_valid _263_:S 0.000000
41 destuff_out_valid _265_:S 0.000000
42 destuff_out_valid _267_:S 0.000000
43 destuff_out_valid _269_:S 0.000000
44 destuff_out_valid _272_:S 0.000000
45 destuff_out_valid _274_:S 0.000000
46 destuff_out_valid _278_:A2 0.000000
47 destuff_out_valid _280_:A2 0.000000
48 destuff_out_valid _281_:A2 0.000000
49 destuff_out_valid u_destuffer\/_49_:Q 0.000000
50 destuff_out_valid _232_:A2 0.000000
*END

*D_NET destuff_stuff_err 1.600710
*CONN
*P destuff_stuff_err B
*I u_destuffer\/_44_:Q B
*I _271_:A1 B
*CAP
1 destuff_stuff_err 1.600710
*RES
1 destuff_stuff_err destuff_stuff_err:2 14.676100
2 destuff_stuff_err destuff_stuff_err:3 30.169700
3 destuff_stuff_err destuff_stuff_err:4 15.262300
4 destuff_stuff_err destuff_stuff_err:5 29.475200
5 destuff_stuff_err u_destuffer\/_44_:Q 0.000000
6 destuff_stuff_err _271_:A1 0.000000
*END

*D_NET enc_line_bit 5.163203
*CONN
*P enc_line_bit B
*I u_encoder\/_14_:Q B
*I u_encoder\/_09_:A1 B
*I u_encoder\/_08_:B B
*I _252_:A2 B
*CAP
1 enc_line_bit 5.117420
2 enc_line_bit enc_line_valid 0.004628
3 enc_line_bit int_rst_n 0.004628
4 enc_line_bit stuff_out_bit 0.013057
5 enc_line_bit tx_state[2] 0.004628
6 enc_line_bit tx_state[5] 0.005454
7 enc_line_bit u_encoder\/_03_ 0.008760
8 enc_line_bit u_encoder\/_05_ 0.004628
*RES
1 enc_line_bit enc_line_bit:2 41.139000
2 enc_line_bit enc_line_bit:3 40.825400
3 enc_line_bit enc_line_bit:4 20.871400
4 enc_line_bit enc_line_bit:5 31.064500
5 enc_line_bit enc_line_bit:6 29.623100
6 enc_line_bit enc_line_bit:7 30.053900
7 enc_line_bit enc_line_bit:8 37.078500
8 enc_line_bit enc_line_bit:9 52.150800
9 enc_line_bit enc_line_bit:10 35.845700
10 enc_line_bit enc_line_bit:11 42.609400
11 enc_line_bit u_encoder\/_14_:Q 0.000000
12 enc_line_bit u_encoder\/_09_:A1 0.000000
13 enc_line_bit u_encoder\/_08_:B 0.000000
14 enc_line_bit _252_:A2 0.000000
*END

*D_NET enc_line_valid 5.754682
*CONN
*P enc_line_valid B
*I u_encoder\/_15_:Q B
*I _276_:A2 B
*I _253_:A1 B
*I _252_:A1 B
*CAP
1 enc_line_valid 5.731543
2 enc_line_valid int_rst_n 0.009255
3 enc_line_valid tx_state[1] 0.004628
4 enc_line_valid tx_state[2] 0.004628
5 enc_line_valid u_encoder\/_01_ 0.004628
*RES
1 enc_line_valid enc_line_valid:2 45.969500
2 enc_line_valid enc_line_valid:3 31.170900
3 enc_line_valid enc_line_valid:4 41.301000
4 enc_line_valid enc_line_valid:5 31.011600
5 enc_line_valid enc_line_valid:6 34.488100
6 enc_line_valid enc_line_valid:7 36.456800
7 enc_line_valid enc_line_valid:8 30.454000
8 enc_line_valid enc_line_valid:9 38.413300
9 enc_line_valid u_encoder\/_15_:Q 0.000000
10 enc_line_valid _276_:A2 0.000000
11 enc_line_valid _253_:A1 0.000000
12 enc_line_valid _252_:A1 0.000000
*END

*D_NET eop_pulse 3.174169
*CONN
*P eop_pulse B
*I u_eop_detector\/_55_:Q B
*I _287_:A2 B
*CAP
1 eop_pulse 3.120289
2 eop_pulse u_eop_detector\/_00_ 0.004628
3 eop_pulse u_eop_detector\/_09_ 0.013883
4 eop_pulse u_eop_detector\/_10_ 0.009255
5 eop_pulse u_eop_detector\/_12_ 0.004628
6 eop_pulse u_eop_detector\/_13_ 0.004628
7 eop_pulse u_eop_detector\/_14_ 0.008429
8 eop_pulse u_eop_detector\/_15_ 0.008429
*RES
1 eop_pulse eop_pulse:2 26.086900
2 eop_pulse eop_pulse:3 25.839400
3 eop_pulse eop_pulse:4 20.647700
4 eop_pulse eop_pulse:5 20.894600
5 eop_pulse u_eop_detector\/_55_:Q 0.000000
6 eop_pulse _287_:A2 0.000000
*END

*D_NET int_rst_n 48.279766
*CONN
*P int_rst_n B
*I u_sync_detector\/_32_:A1 B
*I u_sync_detector\/_21_:A2 B
*I u_stuffer\/_30_:B B
*I u_stuffer\/_25_:A2 B
*I u_line_state\/_5_:A1 B
*I u_line_state\/_4_:A2 B
*I u_eop_detector\/_28_:A1 B
*I u_encoder\/_10_:I B
*I u_destuffer\/_26_:A2 B
*I u_destuffer\/_24_:A4 B
*I u_decoder\/_14_:A2 B
*I u_decoder\/_11_:C B
*I _231_:A1 B
*I _229_:A1 B
*I _185_:A2 B
*I _168_:A2 B
*I _167_:A2 B
*I _163_:A2 B
*I _162_:A3 B
*I _153_:A1 B
*I _149_:ZN B
*CAP
1 int_rst_n 47.796888
2 int_rst_n line_state[0] 0.013883
3 int_rst_n line_state[1] 0.013057
4 int_rst_n next_valid 0.004628
5 int_rst_n rx_receiving 0.004628
6 int_rst_n rxdm 0.007024
7 int_rst_n stuff_in_ready 0.027766
8 int_rst_n stuff_out_bit 0.004628
9 int_rst_n stuffer_in_bit 0.025039
10 int_rst_n stuffer_in_valid 0.046277
11 int_rst_n sync_next 0.004628
12 int_rst_n tx_state[0] 0.020164
13 int_rst_n tx_state[2] 0.004628
14 int_rst_n tx_state[3] 0.004628
15 int_rst_n tx_state[4] 0.018511
16 int_rst_n tx_state[5] 0.027766
17 int_rst_n tx_state[6] 0.004628
18 int_rst_n tx_state[8] 0.000826
19 int_rst_n txdm 0.004628
20 int_rst_n txdp 0.004628
21 int_rst_n u_decoder\/_00_ 0.031990
22 int_rst_n u_decoder\/_01_ 0.009255
23 int_rst_n u_decoder\/_04_ 0.009255
24 int_rst_n u_decoder\/_07_ 0.009255
25 int_rst_n u_decoder\/prev_line 0.004628
26 int_rst_n u_destuffer\/_07_ 0.014537
27 int_rst_n u_destuffer\/_08_ 0.033803
28 int_rst_n u_destuffer\/_09_ 0.008429
29 int_rst_n u_destuffer\/ones[0] 0.003801
30 int_rst_n u_encoder\/_02_ 0.004628
31 int_rst_n u_encoder\/_03_ 0.004628
32 int_rst_n u_encoder\/_05_ 0.004628
33 int_rst_n u_eop_detector\/_00_ 0.004628
34 int_rst_n u_eop_detector\/_08_ 0.009255
35 int_rst_n u_eop_detector\/_09_ 0.003801
36 int_rst_n u_line_state\/_0_ 0.004628
37 int_rst_n u_stuffer\/_02_ 0.004628
38 int_rst_n u_stuffer\/_10_ 0.016858
39 int_rst_n u_stuffer\/_11_ 0.010802
40 int_rst_n u_stuffer\/_14_ 0.004628
41 int_rst_n u_stuffer\/_15_ 0.004628
42 int_rst_n u_stuffer\/ones[0] 0.021362
43 int_rst_n u_sync_detector\/_04_ 0.004628
44 int_rst_n u_sync_detector\/_07_ 0.003801
45 int_rst_n u_sync_detector\/_09_ 0.003801
46 int_rst_n u_sync_detector\/match[3] 0.004628
*RES
1 int_rst_n int_rst_n:2 42.233900
2 int_rst_n int_rst_n:3 50.221900
3 int_rst_n int_rst_n:4 53.081500
4 int_rst_n int_rst_n:5 57.267300
5 int_rst_n int_rst_n:6 51.863700
6 int_rst_n int_rst_n:7 52.979000
7 int_rst_n int_rst_n:8 54.170600
8 int_rst_n int_rst_n:9 50.036200
9 int_rst_n int_rst_n:10 53.336200
10 int_rst_n int_rst_n:11 49.161900
11 int_rst_n int_rst_n:12 54.384600
12 int_rst_n int_rst_n:13 50.202300
13 int_rst_n int_rst_n:14 79.676600
14 int_rst_n int_rst_n:15 78.837800
15 int_rst_n int_rst_n:16 54.310400
16 int_rst_n int_rst_n:17 51.339500
17 int_rst_n int_rst_n:18 55.440300
18 int_rst_n int_rst_n:19 82.020600
19 int_rst_n int_rst_n:20 44.614100
20 int_rst_n int_rst_n:21 56.144700
21 int_rst_n int_rst_n:22 48.738600
22 int_rst_n int_rst_n:23 30.048700
23 int_rst_n int_rst_n:24 29.801600
24 int_rst_n int_rst_n:25 29.601100
25 int_rst_n int_rst_n:26 83.203500
26 int_rst_n int_rst_n:27 58.758400
27 int_rst_n int_rst_n:28 69.868800
28 int_rst_n int_rst_n:29 26.792400
29 int_rst_n int_rst_n:30 27.034300
30 int_rst_n int_rst_n:31 32.316300
31 int_rst_n int_rst_n:32 30.166400
32 int_rst_n int_rst_n:33 28.698600
33 int_rst_n int_rst_n:34 26.852900
34 int_rst_n int_rst_n:35 39.412600
35 int_rst_n int_rst_n:36 22.219700
36 int_rst_n int_rst_n:37 32.998600
37 int_rst_n int_rst_n:38 34.258900
38 int_rst_n int_rst_n:39 36.838200
39 int_rst_n int_rst_n:40 36.244900
40 int_rst_n int_rst_n:41 19.066500
41 int_rst_n int_rst_n:42 29.836600
42 int_rst_n int_rst_n:43 68.872500
43 int_rst_n int_rst_n:44 57.559000
44 int_rst_n int_rst_n:45 83.061900
45 int_rst_n int_rst_n:46 47.992700
46 int_rst_n int_rst_n:47 37.329400
47 int_rst_n int_rst_n:48 53.675700
48 int_rst_n int_rst_n:49 67.218600
49 int_rst_n int_rst_n:50 50.498900
50 int_rst_n int_rst_n:51 70.363600
51 int_rst_n int_rst_n:52 19.749400
52 int_rst_n int_rst_n:53 44.365500
53 int_rst_n int_rst_n:54 46.479100
54 int_rst_n int_rst_n:55 49.856900
55 int_rst_n int_rst_n:56 82.775600
56 int_rst_n int_rst_n:57 22.618200
57 int_rst_n int_rst_n:58 71.219900
58 int_rst_n int_rst_n:59 40.201500
59 int_rst_n int_rst_n:60 33.169400
60 int_rst_n int_rst_n:61 52.970100
61 int_rst_n int_rst_n:62 68.218200
62 int_rst_n int_rst_n:63 43.271400
63 int_rst_n u_sync_detector\/_32_:A1 0.000000
64 int_rst_n u_sync_detector\/_21_:A2 0.000000
65 int_rst_n u_stuffer\/_30_:B 0.000000
66 int_rst_n u_stuffer\/_25_:A2 0.000000
67 int_rst_n u_line_state\/_5_:A1 0.000000
68 int_rst_n u_line_state\/_4_:A2 0.000000
69 int_rst_n u_eop_detector\/_28_:A1 0.000000
70 int_rst_n u_encoder\/_10_:I 0.000000
71 int_rst_n u_destuffer\/_26_:A2 0.000000
72 int_rst_n u_destuffer\/_24_:A4 0.000000
73 int_rst_n u_decoder\/_14_:A2 0.000000
74 int_rst_n u_decoder\/_11_:C 0.000000
75 int_rst_n _231_:A1 0.000000
76 int_rst_n _229_:A1 0.000000
77 int_rst_n _185_:A2 0.000000
78 int_rst_n _168_:A2 0.000000
79 int_rst_n _167_:A2 0.000000
80 int_rst_n _163_:A2 0.000000
81 int_rst_n _162_:A3 0.000000
82 int_rst_n _153_:A1 0.000000
83 int_rst_n _149_:ZN 0.000000
*END

*D_NET line_state\[0\] 10.916438
*CONN
*P line_state\[0\] B
*I u_line_state\/_6_:Q B
*I u_eop_detector\/_27_:A1 B
*I _172_:A1 B
*I _170_:I B
*CAP
1 line_state[0] 10.859722
2 line_state[0] line_state[1] 0.013668
3 line_state[0] rx_shift[1] 0.004628
4 line_state[0] rx_shift[2] 0.004628
5 line_state[0] rx_shift[3] 0.004628
6 line_state[0] rx_shift[4] 0.004628
7 line_state[0] rxdm 0.004628
8 line_state[0] txdp 0.009255
9 line_state[0] u_decoder\/_03_ 0.004628
10 line_state[0] u_eop_detector\/_08_ 0.006025
*RES
1 line_state[0] line_state\[0\]:2 45.581600
2 line_state[0] line_state\[0\]:3 39.050500
3 line_state[0] line_state\[0\]:4 55.219400
4 line_state[0] line_state\[0\]:5 52.247700
5 line_state[0] line_state\[0\]:6 1.655000
6 line_state[0] line_state\[0\]:7 11.780900
7 line_state[0] line_state\[0\]:8 37.239500
8 line_state[0] line_state\[0\]:9 25.632400
9 line_state[0] line_state\[0\]:10 73.703800
10 line_state[0] line_state\[0\]:11 63.040200
11 line_state[0] u_line_state\/_6_:Q 0.000000
12 line_state[0] u_eop_detector\/_27_:A1 0.000000
13 line_state[0] _172_:A1 0.000000
14 line_state[0] _170_:I 0.000000
*END

*D_NET line_state\[1\] 10.879790
*CONN
*P line_state\[1\] B
*I u_line_state\/_7_:Q B
*I u_eop_detector\/_27_:A2 B
*I _172_:A2 B
*I _171_:A2 B
*CAP
1 line_state[1] 10.810621
2 line_state[1] rxdp 0.004628
3 line_state[1] txdm 0.004628
4 line_state[1] txdp 0.004628
5 line_state[1] u_eop_detector\/_08_ 0.004628
6 line_state[1] u_line_state\/_1_ 0.050657
*RES
1 line_state[1] line_state\[1\]:2 38.027200
2 line_state[1] line_state\[1\]:3 20.850700
3 line_state[1] line_state\[1\]:4 25.653400
4 line_state[1] line_state\[1\]:5 20.772900
5 line_state[1] line_state\[1\]:6 44.701000
6 line_state[1] line_state\[1\]:7 32.887300
7 line_state[1] line_state\[1\]:8 25.096500
8 line_state[1] line_state\[1\]:9 84.548200
9 line_state[1] line_state\[1\]:10 33.099700
10 line_state[1] line_state\[1\]:11 80.831300
11 line_state[1] u_line_state\/_7_:Q 0.000000
12 line_state[1] u_eop_detector\/_27_:A2 0.000000
13 line_state[1] _172_:A2 0.000000
14 line_state[1] _171_:A2 0.000000
*END

*D_NET next_byte\[0\] 4.623522
*CONN
*P next_byte\[0\] B
*I _298_:Q B
*I _219_:A1 B
*I _194_:A1 B
*CAP
1 next_byte[0] 4.606085
2 next_byte[0] next_byte[6] 0.004628
3 next_byte[0] tx_state[3] 0.012809
*RES
1 next_byte[0] next_byte\[0\]:2 28.918700
2 next_byte[0] next_byte\[0\]:3 31.768400
3 next_byte[0] next_byte\[0\]:4 34.352900
4 next_byte[0] next_byte\[0\]:5 34.410500
5 next_byte[0] next_byte\[0\]:6 35.661900
6 next_byte[0] next_byte\[0\]:7 32.916600
7 next_byte[0] next_byte\[0\]:8 34.628300
8 next_byte[0] next_byte\[0\]:9 41.140600
9 next_byte[0] _298_:Q 0.000000
10 next_byte[0] _219_:A1 0.000000
11 next_byte[0] _194_:A1 0.000000
*END

*D_NET next_byte\[1\] 3.477366
*CONN
*P next_byte\[1\] B
*I _299_:Q B
*I _216_:A1 B
*I _190_:A1 B
*CAP
1 next_byte[1] 3.471294
2 next_byte[1] tx_state[3] 0.006072
*RES
1 next_byte[1] next_byte\[1\]:2 31.926200
2 next_byte[1] next_byte\[1\]:3 36.183500
3 next_byte[1] next_byte\[1\]:4 45.226500
4 next_byte[1] next_byte\[1\]:5 26.637700
5 next_byte[1] next_byte\[1\]:6 34.200600
6 next_byte[1] next_byte\[1\]:7 29.237300
7 next_byte[1] next_byte\[1\]:8 41.107400
8 next_byte[1] next_byte\[1\]:9 23.832000
9 next_byte[1] _299_:Q 0.000000
10 next_byte[1] _216_:A1 0.000000
11 next_byte[1] _190_:A1 0.000000
*END

*D_NET next_byte\[2\] 4.521995
*CONN
*P next_byte\[2\] B
*I _300_:Q B
*I _296_:A1 B
*I _213_:A1 B
*CAP
1 next_byte[2] 4.512739
2 next_byte[2] next_byte[4] 0.004628
3 next_byte[2] tx_state[3] 0.004628
*RES
1 next_byte[2] next_byte\[2\]:2 35.532100
2 next_byte[2] next_byte\[2\]:3 33.211300
3 next_byte[2] next_byte\[2\]:4 38.863000
4 next_byte[2] next_byte\[2\]:5 30.901600
5 next_byte[2] next_byte\[2\]:6 34.960900
6 next_byte[2] next_byte\[2\]:7 32.373400
7 next_byte[2] next_byte\[2\]:8 37.650900
8 next_byte[2] next_byte\[2\]:9 30.205200
9 next_byte[2] _300_:Q 0.000000
10 next_byte[2] _296_:A1 0.000000
11 next_byte[2] _213_:A1 0.000000
*END

*D_NET next_byte\[3\] 3.704860
*CONN
*P next_byte\[3\] B
*I _301_:Q B
*I _293_:A1 B
*I _210_:A1 B
*CAP
1 next_byte[3] 3.694778
2 next_byte[3] tx_state[3] 0.010082
*RES
1 next_byte[3] next_byte\[3\]:2 15.870000
2 next_byte[3] next_byte\[3\]:3 9.876800
3 next_byte[3] next_byte\[3\]:4 54.539600
4 next_byte[3] next_byte\[3\]:5 60.142000
5 next_byte[3] next_byte\[3\]:6 22.610600
6 next_byte[3] next_byte\[3\]:7 18.654700
7 next_byte[3] next_byte\[3\]:8 43.251800
8 next_byte[3] next_byte\[3\]:9 44.061400
9 next_byte[3] _301_:Q 0.000000
10 next_byte[3] _293_:A1 0.000000
11 next_byte[3] _210_:A1 0.000000
*END

*D_NET next_byte\[4\] 3.693770
*CONN
*P next_byte\[4\] B
*I _302_:Q B
*I _291_:A1 B
*I _207_:A1 B
*CAP
1 next_byte[4] 3.668361
2 next_byte[4] next_byte[6] 0.009255
3 next_byte[4] tx_state[3] 0.016154
*RES
1 next_byte[4] next_byte\[4\]:2 21.627000
2 next_byte[4] next_byte\[4\]:3 26.429400
3 next_byte[4] next_byte\[4\]:4 41.636800
4 next_byte[4] next_byte\[4\]:5 43.664100
5 next_byte[4] next_byte\[4\]:6 32.019400
6 next_byte[4] next_byte\[4\]:7 27.856900
7 next_byte[4] next_byte\[4\]:8 45.513000
8 next_byte[4] next_byte\[4\]:9 30.358000
9 next_byte[4] _302_:Q 0.000000
10 next_byte[4] _291_:A1 0.000000
11 next_byte[4] _207_:A1 0.000000
*END

*D_NET next_byte\[5\] 3.557490
*CONN
*P next_byte\[5\] B
*I _303_:Q B
*I _285_:A1 B
*I _204_:A1 B
*CAP
1 next_byte[5] 3.547408
2 next_byte[5] tx_state[3] 0.010082
*RES
1 next_byte[5] next_byte\[5\]:2 29.871400
2 next_byte[5] next_byte\[5\]:3 34.139200
3 next_byte[5] next_byte\[5\]:4 41.931500
4 next_byte[5] next_byte\[5\]:5 23.271200
5 next_byte[5] next_byte\[5\]:6 35.932600
6 next_byte[5] next_byte\[5\]:7 31.532900
7 next_byte[5] next_byte\[5\]:8 46.399800
8 next_byte[5] next_byte\[5\]:9 25.692200
9 next_byte[5] _303_:Q 0.000000
10 next_byte[5] _285_:A1 0.000000
11 next_byte[5] _204_:A1 0.000000
*END

*D_NET next_byte\[6\] 4.429442
*CONN
*P next_byte\[6\] B
*I _304_:Q B
*I _283_:A1 B
*I _201_:A1 B
*CAP
1 next_byte[6] 4.422500
2 next_byte[6] tx_state[3] 0.006942
*RES
1 next_byte[6] next_byte\[6\]:2 24.982900
2 next_byte[6] next_byte\[6\]:3 28.973800
3 next_byte[6] next_byte\[6\]:4 51.887000
4 next_byte[6] next_byte\[6\]:5 23.600800
5 next_byte[6] next_byte\[6\]:6 26.590600
6 next_byte[6] next_byte\[6\]:7 21.770000
7 next_byte[6] next_byte\[6\]:8 59.966500
8 next_byte[6] next_byte\[6\]:9 34.996700
9 next_byte[6] _304_:Q 0.000000
10 next_byte[6] _283_:A1 0.000000
11 next_byte[6] _201_:A1 0.000000
*END

*D_NET next_byte\[7\] 3.634465
*CONN
*P next_byte\[7\] B
*I _305_:Q B
*I _258_:A1 B
*I _243_:A1 B
*CAP
1 next_byte[7] 3.629837
2 next_byte[7] tx_state[3] 0.004628
*RES
1 next_byte[7] next_byte\[7\]:2 35.581200
2 next_byte[7] next_byte\[7\]:3 30.502300
3 next_byte[7] next_byte\[7\]:4 33.173400
4 next_byte[7] next_byte\[7\]:5 27.935900
5 next_byte[7] next_byte\[7\]:6 50.699500
6 next_byte[7] next_byte\[7\]:7 20.014400
7 next_byte[7] next_byte\[7\]:8 46.711100
8 next_byte[7] next_byte\[7\]:9 15.477500
9 next_byte[7] _305_:Q 0.000000
10 next_byte[7] _258_:A1 0.000000
11 next_byte[7] _243_:A1 0.000000
*END

*D_NET next_valid 5.071148
*CONN
*P next_valid B
*I _339_:Q B
*I _261_:A1 B
*I _160_:A1 B
*I _152_:A1 B
*CAP
1 next_valid 5.071148
*RES
1 next_valid next_valid:2 15.533700
2 next_valid next_valid:3 24.955700
3 next_valid next_valid:4 32.301500
4 next_valid next_valid:5 39.165400
5 next_valid next_valid:6 28.860400
6 next_valid next_valid:7 84.630600
7 next_valid next_valid:8 61.931200
8 next_valid next_valid:9 30.909800
9 next_valid next_valid:10 21.561100
10 next_valid next_valid:11 6.654100
11 next_valid next_valid:12 30.021100
12 next_valid next_valid:13 64.820900
13 next_valid next_valid:14 48.451200
14 next_valid next_valid:15 41.970000
15 next_valid _339_:Q 0.000000
16 next_valid _261_:A1 0.000000
17 next_valid _160_:A1 0.000000
18 next_valid _152_:A1 0.000000
*END

*D_NET rst_n 1.764233
*CONN
*P rst_n B
*I _147_:I B
*CAP
1 rst_n 1.759605
2 rst_n txdp 0.004628
*RES
1 rst_n rst_n:2 42.389500
2 rst_n rst_n:3 42.389500
3 rst_n _147_:I 0.000000
*END

*D_NET rx_bitcnt\[0\] 5.619043
*CONN
*P rx_bitcnt\[0\] B
*I _306_:Q B
*I _281_:A1 B
*I _280_:A1 B
*I _278_:A1 B
*I _232_:A1 B
*CAP
1 rx_bitcnt[0] 5.608135
2 rx_bitcnt[0] rx_bitcnt[1] 0.010908
*RES
1 rx_bitcnt[0] rx_bitcnt\[0\]:2 28.944700
2 rx_bitcnt[0] rx_bitcnt\[0\]:3 29.955300
3 rx_bitcnt[0] rx_bitcnt\[0\]:4 33.185800
4 rx_bitcnt[0] rx_bitcnt\[0\]:5 33.926700
5 rx_bitcnt[0] rx_bitcnt\[0\]:6 45.770700
6 rx_bitcnt[0] rx_bitcnt\[0\]:7 43.027200
7 rx_bitcnt[0] rx_bitcnt\[0\]:8 54.688400
8 rx_bitcnt[0] rx_bitcnt\[0\]:9 38.021200
9 rx_bitcnt[0] rx_bitcnt\[0\]:10 44.090800
10 rx_bitcnt[0] rx_bitcnt\[0\]:11 30.890900
11 rx_bitcnt[0] _306_:Q 0.000000
12 rx_bitcnt[0] _281_:A1 0.000000
13 rx_bitcnt[0] _280_:A1 0.000000
14 rx_bitcnt[0] _278_:A1 0.000000
15 rx_bitcnt[0] _232_:A1 0.000000
*END

*D_NET rx_bitcnt\[1\] 3.644706
*CONN
*P rx_bitcnt\[1\] B
*I _307_:Q B
*I _278_:B B
*I _232_:A3 B
*CAP
1 rx_bitcnt[1] 3.644706
*RES
1 rx_bitcnt[1] rx_bitcnt\[1\]:2 19.787900
2 rx_bitcnt[1] rx_bitcnt\[1\]:3 14.352200
3 rx_bitcnt[1] rx_bitcnt\[1\]:4 27.174400
4 rx_bitcnt[1] rx_bitcnt\[1\]:5 38.301300
5 rx_bitcnt[1] rx_bitcnt\[1\]:6 50.456900
6 rx_bitcnt[1] rx_bitcnt\[1\]:7 40.147500
7 rx_bitcnt[1] _307_:Q 0.000000
8 rx_bitcnt[1] _278_:B 0.000000
9 rx_bitcnt[1] _232_:A3 0.000000
*END

*D_NET rx_bitcnt\[2\] 5.110013
*CONN
*P rx_bitcnt\[2\] B
*I _308_:Q B
*I _237_:A1 B
*I _236_:A1 B
*I _235_:A1 B
*CAP
1 rx_bitcnt[2] 5.096129
2 rx_bitcnt[2] u_destuffer\/_05_ 0.004628
3 rx_bitcnt[2] u_destuffer\/ones[1] 0.004628
4 rx_bitcnt[2] u_destuffer\/ones[2] 0.004628
*RES
1 rx_bitcnt[2] rx_bitcnt\[2\]:2 72.144600
2 rx_bitcnt[2] rx_bitcnt\[2\]:3 42.467200
3 rx_bitcnt[2] rx_bitcnt\[2\]:4 42.734700
4 rx_bitcnt[2] rx_bitcnt\[2\]:5 28.249100
5 rx_bitcnt[2] rx_bitcnt\[2\]:6 28.614200
6 rx_bitcnt[2] rx_bitcnt\[2\]:7 58.324300
7 rx_bitcnt[2] rx_bitcnt\[2\]:8 18.735100
8 rx_bitcnt[2] rx_bitcnt\[2\]:9 27.410100
9 rx_bitcnt[2] rx_bitcnt\[2\]:10 23.840800
10 rx_bitcnt[2] rx_bitcnt\[2\]:11 18.034500
11 rx_bitcnt[2] _308_:Q 0.000000
12 rx_bitcnt[2] _237_:A1 0.000000
13 rx_bitcnt[2] _236_:A1 0.000000
14 rx_bitcnt[2] _235_:A1 0.000000
*END

*D_NET rx_receiving 10.908968
*CONN
*P rx_receiving B
*I _326_:Q B
*I _169_:A1 B
*I _146_:I B
*CAP
1 rx_receiving 10.863386
2 rx_receiving rx_shift[1] 0.013883
3 rx_receiving rx_shift[2] 0.004628
4 rx_receiving rx_shift[3] 0.004628
5 rx_receiving rx_shift[4] 0.004628
6 rx_receiving txdp 0.004628
7 rx_receiving u_decoder\/_00_ 0.004758
8 rx_receiving u_decoder\/_03_ 0.003801
9 rx_receiving u_decoder\/_07_ 0.004628
*RES
1 rx_receiving rx_receiving:2 25.211400
2 rx_receiving rx_receiving:3 21.374800
3 rx_receiving rx_receiving:4 46.157500
4 rx_receiving rx_receiving:5 43.945500
5 rx_receiving rx_receiving:6 51.847200
6 rx_receiving rx_receiving:7 39.295600
7 rx_receiving _326_:Q 0.000000
8 rx_receiving _169_:A1 0.000000
9 rx_receiving _146_:I 0.000000
*END

*D_NET rx_shift\[1\] 3.123306
*CONN
*P rx_shift\[1\] B
*I _309_:Q B
*I _274_:I0 B
*I _256_:I0 B
*CAP
1 rx_shift[1] 3.118678
2 rx_shift[1] txdp 0.004628
*RES
1 rx_shift[1] rx_shift\[1\]:2 42.239700
2 rx_shift[1] rx_shift\[1\]:3 34.722000
3 rx_shift[1] rx_shift\[1\]:4 38.773300
4 rx_shift[1] rx_shift\[1\]:5 30.995500
5 rx_shift[1] rx_shift\[1\]:6 14.793300
6 rx_shift[1] rx_shift\[1\]:7 27.821100
7 rx_shift[1] _309_:Q 0.000000
8 rx_shift[1] _274_:I0 0.000000
9 rx_shift[1] _256_:I0 0.000000
*END

*D_NET rx_shift\[2\] 4.390640
*CONN
*P rx_shift\[2\] B
*I _310_:Q B
*I _274_:I1 B
*I _272_:I0 B
*I _249_:I0 B
*CAP
1 rx_shift[2] 4.390640
*RES
1 rx_shift[2] rx_shift\[2\]:2 43.254300
2 rx_shift[2] rx_shift\[2\]:3 32.223800
3 rx_shift[2] rx_shift\[2\]:4 37.535600
4 rx_shift[2] rx_shift\[2\]:5 65.603300
5 rx_shift[2] rx_shift\[2\]:6 60.927000
6 rx_shift[2] rx_shift\[2\]:7 29.359000
7 rx_shift[2] rx_shift\[2\]:8 14.760300
8 rx_shift[2] rx_shift\[2\]:9 21.751800
9 rx_shift[2] _310_:Q 0.000000
10 rx_shift[2] _274_:I1 0.000000
11 rx_shift[2] _272_:I0 0.000000
12 rx_shift[2] _249_:I0 0.000000
*END

*D_NET rx_shift\[3\] 5.168708
*CONN
*P rx_shift\[3\] B
*I _311_:Q B
*I _272_:I1 B
*I _269_:I0 B
*I _247_:I0 B
*CAP
1 rx_shift[3] 5.164080
2 rx_shift[3] txdp 0.004628
*RES
1 rx_shift[3] rx_shift\[3\]:2 48.806800
2 rx_shift[3] rx_shift\[3\]:3 41.253200
3 rx_shift[3] rx_shift\[3\]:4 35.194900
4 rx_shift[3] rx_shift\[3\]:5 58.854800
5 rx_shift[3] rx_shift\[3\]:6 56.013400
6 rx_shift[3] rx_shift\[3\]:7 44.402700
7 rx_shift[3] rx_shift\[3\]:8 6.032500
8 rx_shift[3] rx_shift\[3\]:9 18.437000
9 rx_shift[3] _311_:Q 0.000000
10 rx_shift[3] _272_:I1 0.000000
11 rx_shift[3] _269_:I0 0.000000
12 rx_shift[3] _247_:I0 0.000000
*END

*D_NET rx_shift\[4\] 5.215470
*CONN
*P rx_shift\[4\] B
*I _312_:Q B
*I _269_:I1 B
*I _267_:I0 B
*I _246_:I0 B
*CAP
1 rx_shift[4] 5.215470
*RES
1 rx_shift[4] rx_shift\[4\]:2 44.027500
2 rx_shift[4] rx_shift\[4\]:3 75.806200
3 rx_shift[4] rx_shift\[4\]:4 43.895700
4 rx_shift[4] rx_shift\[4\]:5 73.002500
5 rx_shift[4] rx_shift\[4\]:6 3.712000
6 rx_shift[4] rx_shift\[4\]:7 6.687500
7 rx_shift[4] rx_shift\[4\]:8 34.306600
8 rx_shift[4] rx_shift\[4\]:9 28.415100
9 rx_shift[4] _312_:Q 0.000000
10 rx_shift[4] _269_:I1 0.000000
11 rx_shift[4] _267_:I0 0.000000
12 rx_shift[4] _246_:I0 0.000000
*END

*D_NET rx_shift\[5\] 4.818845
*CONN
*P rx_shift\[5\] B
*I _313_:Q B
*I _267_:I1 B
*I _265_:I0 B
*I _245_:I0 B
*CAP
1 rx_shift[5] 4.818845
*RES
1 rx_shift[5] rx_shift\[5\]:2 44.286900
2 rx_shift[5] rx_shift\[5\]:3 51.501000
3 rx_shift[5] rx_shift\[5\]:4 61.019900
4 rx_shift[5] rx_shift\[5\]:5 54.957600
5 rx_shift[5] rx_shift\[5\]:6 24.716300
6 rx_shift[5] rx_shift\[5\]:7 31.569400
7 rx_shift[5] rx_shift\[5\]:8 14.055400
8 rx_shift[5] rx_shift\[5\]:9 25.138400
9 rx_shift[5] _313_:Q 0.000000
10 rx_shift[5] _267_:I1 0.000000
11 rx_shift[5] _265_:I0 0.000000
12 rx_shift[5] _245_:I0 0.000000
*END

*D_NET rx_shift\[6\] 5.003520
*CONN
*P rx_shift\[6\] B
*I _314_:Q B
*I _265_:I1 B
*I _263_:I0 B
*I _242_:I0 B
*CAP
1 rx_shift[6] 5.003520
*RES
1 rx_shift[6] rx_shift\[6\]:2 27.454800
2 rx_shift[6] rx_shift\[6\]:3 22.907900
3 rx_shift[6] rx_shift\[6\]:4 52.090200
4 rx_shift[6] rx_shift\[6\]:5 35.413700
5 rx_shift[6] rx_shift\[6\]:6 38.166500
6 rx_shift[6] rx_shift\[6\]:7 61.370400
7 rx_shift[6] rx_shift\[6\]:8 30.397100
8 rx_shift[6] rx_shift\[6\]:9 40.694000
9 rx_shift[6] _314_:Q 0.000000
10 rx_shift[6] _265_:I1 0.000000
11 rx_shift[6] _263_:I0 0.000000
12 rx_shift[6] _242_:I0 0.000000
*END

*D_NET rx_shift\[7\] 5.049898
*CONN
*P rx_shift\[7\] B
*I _315_:Q B
*I _263_:I1 B
*I _240_:I0 B
*I _238_:I0 B
*CAP
1 rx_shift[7] 5.049898
*RES
1 rx_shift[7] rx_shift\[7\]:2 19.636000
2 rx_shift[7] rx_shift\[7\]:3 10.897900
3 rx_shift[7] rx_shift\[7\]:4 55.280700
4 rx_shift[7] rx_shift\[7\]:5 9.767700
5 rx_shift[7] rx_shift\[7\]:6 19.130000
6 rx_shift[7] rx_shift\[7\]:7 67.667900
7 rx_shift[7] rx_shift\[7\]:8 69.432700
8 rx_shift[7] rx_shift\[7\]:9 56.117500
9 rx_shift[7] _315_:Q 0.000000
10 rx_shift[7] _263_:I1 0.000000
11 rx_shift[7] _240_:I0 0.000000
12 rx_shift[7] _238_:I0 0.000000
*END

*D_NET rxdm 6.151148
*CONN
*P rxdm B
*I u_line_state\/_5_:A2 B
*CAP
1 rxdm 6.146520
2 rxdm u_line_state\/_2_ 0.004628
*RES
1 rxdm rxdm:2 49.866200
2 rxdm rxdm:3 49.006000
3 rxdm rxdm:4 49.866200
4 rxdm rxdm:5 49.006000
5 rxdm u_line_state\/_5_:A2 0.000000
*END

*D_NET rxdp 5.436551
*CONN
*P rxdp B
*I u_line_state\/_3_:I B
*CAP
1 rxdp 5.429264
2 rxdp u_line_state\/_2_ 0.007287
*RES
1 rxdp rxdp:2 45.211900
2 rxdp rxdp:3 44.639400
3 rxdp rxdp:4 44.639400
4 rxdp rxdp:5 45.211900
5 rxdp u_line_state\/_3_:I 0.000000
*END

*D_NET stuff_in_ready 10.862065
*CONN
*P stuff_in_ready B
*I u_stuffer\/_37_:A2 B
*I u_stuffer\/_20_:Z B
*I _222_:A2 B
*I _184_:A1 B
*I _158_:A4 B
*I _150_:A4 B
*CAP
1 stuff_in_ready 10.757101
2 stuff_in_ready stuffer_in_bit 0.008429
3 stuff_in_ready stuffer_in_valid 0.015728
4 stuff_in_ready tx_bitidx[0] 0.014957
5 stuff_in_ready tx_bitidx[1] 0.017684
6 stuff_in_ready tx_bitidx[2] 0.021722
7 stuff_in_ready tx_state[3] 0.004628
8 stuff_in_ready u_stuffer\/_02_ 0.003801
9 stuff_in_ready u_stuffer\/_06_ 0.000826
10 stuff_in_ready u_stuffer\/_14_ 0.011735
11 stuff_in_ready u_stuffer\/ones[0] 0.005454
*RES
1 stuff_in_ready stuff_in_ready:2 55.590700
2 stuff_in_ready stuff_in_ready:3 49.623000
3 stuff_in_ready stuff_in_ready:4 47.184800
4 stuff_in_ready stuff_in_ready:5 42.552600
5 stuff_in_ready stuff_in_ready:6 44.307600
6 stuff_in_ready stuff_in_ready:7 19.294600
7 stuff_in_ready stuff_in_ready:8 32.476100
8 stuff_in_ready stuff_in_ready:9 28.495300
9 stuff_in_ready stuff_in_ready:10 17.033300
10 stuff_in_ready stuff_in_ready:11 35.983400
11 stuff_in_ready stuff_in_ready:12 38.161800
12 stuff_in_ready stuff_in_ready:13 41.797000
13 stuff_in_ready stuff_in_ready:14 43.706900
14 stuff_in_ready stuff_in_ready:15 39.384900
15 stuff_in_ready stuff_in_ready:16 40.314700
16 stuff_in_ready stuff_in_ready:17 40.306700
17 stuff_in_ready stuff_in_ready:18 34.835400
18 stuff_in_ready stuff_in_ready:19 34.829600
19 stuff_in_ready u_stuffer\/_37_:A2 0.000000
20 stuff_in_ready u_stuffer\/_20_:Z 0.000000
21 stuff_in_ready _222_:A2 0.000000
22 stuff_in_ready _184_:A1 0.000000
23 stuff_in_ready _158_:A4 0.000000
24 stuff_in_ready _150_:A4 0.000000
*END

*D_NET stuff_out_bit 7.503244
*CONN
*P stuff_out_bit B
*I u_stuffer\/_43_:Q B
*I u_stuffer\/_35_:A1 B
*I u_encoder\/_09_:A3 B
*I u_encoder\/_08_:A2 B
*CAP
1 stuff_out_bit 7.428218
2 stuff_out_bit tx_state[2] 0.004628
3 stuff_out_bit u_encoder\/_01_ 0.023139
4 stuff_out_bit u_encoder\/_02_ 0.004628
5 stuff_out_bit u_encoder\/_04_ 0.004628
6 stuff_out_bit u_encoder\/_05_ 0.008429
7 stuff_out_bit u_encoder\/_06_ 0.004628
8 stuff_out_bit u_stuffer\/_11_ 0.004628
9 stuff_out_bit u_stuffer\/_14_ 0.004628
10 stuff_out_bit u_stuffer\/_16_ 0.004628
11 stuff_out_bit u_stuffer\/_17_ 0.004628
12 stuff_out_bit u_stuffer\/_18_ 0.006434
*RES
1 stuff_out_bit stuff_out_bit:2 45.512700
2 stuff_out_bit stuff_out_bit:3 38.259000
3 stuff_out_bit stuff_out_bit:4 32.238300
4 stuff_out_bit stuff_out_bit:5 40.448900
5 stuff_out_bit stuff_out_bit:6 24.374900
6 stuff_out_bit stuff_out_bit:7 25.768700
7 stuff_out_bit stuff_out_bit:8 37.793700
8 stuff_out_bit stuff_out_bit:9 57.905900
9 stuff_out_bit stuff_out_bit:10 34.803800
10 stuff_out_bit stuff_out_bit:11 53.214100
11 stuff_out_bit u_stuffer\/_43_:Q 0.000000
12 stuff_out_bit u_stuffer\/_35_:A1 0.000000
13 stuff_out_bit u_encoder\/_09_:A3 0.000000
14 stuff_out_bit u_encoder\/_08_:A2 0.000000
*END

*D_NET stuff_out_valid 2.181260
*CONN
*P stuff_out_valid B
*I u_stuffer\/_44_:Q B
*I u_encoder\/_07_:I B
*CAP
1 stuff_out_valid 2.181260
*RES
1 stuff_out_valid stuff_out_valid:2 9.186300
2 stuff_out_valid stuff_out_valid:3 26.198700
3 stuff_out_valid stuff_out_valid:4 18.529400
4 stuff_out_valid stuff_out_valid:5 30.871400
5 stuff_out_valid stuff_out_valid:6 46.619600
6 stuff_out_valid stuff_out_valid:7 31.739600
7 stuff_out_valid u_stuffer\/_44_:Q 0.000000
8 stuff_out_valid u_encoder\/_07_:I 0.000000
*END

*D_NET stuffer_in_bit 7.709197
*CONN
*P stuffer_in_bit B
*I u_stuffer\/_33_:A2 B
*I u_stuffer\/_31_:A2 B
*I u_stuffer\/_21_:A1 B
*I _183_:ZN B
*CAP
1 stuffer_in_bit 7.605270
2 stuffer_in_bit stuffer_in_valid 0.006497
3 stuffer_in_bit tx_bitidx[0] 0.013057
4 stuffer_in_bit tx_bitidx[1] 0.023304
5 stuffer_in_bit tx_bitidx[2] 0.004628
6 stuffer_in_bit u_stuffer\/_02_ 0.010082
7 stuffer_in_bit u_stuffer\/_06_ 0.009255
8 stuffer_in_bit u_stuffer\/_11_ 0.004628
9 stuffer_in_bit u_stuffer\/_14_ 0.013858
10 stuffer_in_bit u_stuffer\/_15_ 0.004628
11 stuffer_in_bit u_stuffer\/_16_ 0.004734
12 stuffer_in_bit u_stuffer\/_17_ 0.004628
13 stuffer_in_bit u_stuffer\/ones[0] 0.004628
*RES
1 stuffer_in_bit stuffer_in_bit:2 17.444600
2 stuffer_in_bit stuffer_in_bit:3 28.066500
3 stuffer_in_bit stuffer_in_bit:4 30.384600
4 stuffer_in_bit stuffer_in_bit:5 28.606300
5 stuffer_in_bit stuffer_in_bit:6 33.116700
6 stuffer_in_bit stuffer_in_bit:7 14.617500
7 stuffer_in_bit stuffer_in_bit:8 25.371000
8 stuffer_in_bit stuffer_in_bit:9 28.608600
9 stuffer_in_bit stuffer_in_bit:10 28.488000
10 stuffer_in_bit stuffer_in_bit:11 31.348200
11 stuffer_in_bit stuffer_in_bit:12 31.370700
12 stuffer_in_bit u_stuffer\/_33_:A2 0.000000
13 stuffer_in_bit u_stuffer\/_31_:A2 0.000000
14 stuffer_in_bit u_stuffer\/_21_:A1 0.000000
15 stuffer_in_bit _183_:ZN 0.000000
*END

*D_NET stuffer_in_valid 13.178798
*CONN
*P stuffer_in_valid B
*I u_stuffer\/_34_:I B
*I u_stuffer\/_33_:A1 B
*I u_stuffer\/_32_:A1 B
*I u_stuffer\/_31_:A1 B
*I u_stuffer\/_29_:A1 B
*I u_stuffer\/_27_:A1 B
*I u_stuffer\/_26_:A1 B
*I u_stuffer\/_22_:A1 B
*I _184_:ZN B
*CAP
1 stuffer_in_valid 13.062553
2 stuffer_in_valid u_stuffer\/_00_ 0.008367
3 stuffer_in_valid u_stuffer\/_02_ 0.003801
4 stuffer_in_valid u_stuffer\/_06_ 0.023770
5 stuffer_in_valid u_stuffer\/_07_ 0.004628
6 stuffer_in_valid u_stuffer\/_08_ 0.011900
7 stuffer_in_valid u_stuffer\/_11_ 0.011439
8 stuffer_in_valid u_stuffer\/_12_ 0.003801
9 stuffer_in_valid u_stuffer\/_14_ 0.004628
10 stuffer_in_valid u_stuffer\/_16_ 0.003801
11 stuffer_in_valid u_stuffer\/_17_ 0.009255
12 stuffer_in_valid u_stuffer\/ones[0] 0.019172
13 stuffer_in_valid u_stuffer\/ones[1] 0.009917
14 stuffer_in_valid u_stuffer\/ones[2] 0.001766
*RES
1 stuffer_in_valid stuffer_in_valid:2 88.026400
2 stuffer_in_valid stuffer_in_valid:3 41.731200
3 stuffer_in_valid stuffer_in_valid:4 26.147100
4 stuffer_in_valid stuffer_in_valid:5 23.556900
5 stuffer_in_valid stuffer_in_valid:6 17.214800
6 stuffer_in_valid stuffer_in_valid:7 20.212000
7 stuffer_in_valid stuffer_in_valid:8 29.876700
8 stuffer_in_valid stuffer_in_valid:9 33.214000
9 stuffer_in_valid stuffer_in_valid:10 25.994400
10 stuffer_in_valid stuffer_in_valid:11 37.115600
11 stuffer_in_valid stuffer_in_valid:12 33.858100
12 stuffer_in_valid stuffer_in_valid:13 35.126300
13 stuffer_in_valid stuffer_in_valid:14 78.731700
14 stuffer_in_valid stuffer_in_valid:15 43.812500
15 stuffer_in_valid stuffer_in_valid:16 34.332200
16 stuffer_in_valid stuffer_in_valid:17 7.939900
17 stuffer_in_valid stuffer_in_valid:18 38.724600
18 stuffer_in_valid stuffer_in_valid:19 37.428900
19 stuffer_in_valid stuffer_in_valid:20 22.324600
20 stuffer_in_valid stuffer_in_valid:21 1.305400
21 stuffer_in_valid stuffer_in_valid:22 30.032000
22 stuffer_in_valid stuffer_in_valid:23 28.208000
23 stuffer_in_valid stuffer_in_valid:24 49.822800
24 stuffer_in_valid stuffer_in_valid:25 24.171900
25 stuffer_in_valid stuffer_in_valid:26 75.554500
26 stuffer_in_valid stuffer_in_valid:27 73.627800
27 stuffer_in_valid stuffer_in_valid:28 85.761100
28 stuffer_in_valid stuffer_in_valid:29 84.249300
29 stuffer_in_valid u_stuffer\/_34_:I 0.000000
30 stuffer_in_valid u_stuffer\/_33_:A1 0.000000
31 stuffer_in_valid u_stuffer\/_32_:A1 0.000000
32 stuffer_in_valid u_stuffer\/_31_:A1 0.000000
33 stuffer_in_valid u_stuffer\/_29_:A1 0.000000
34 stuffer_in_valid u_stuffer\/_27_:A1 0.000000
35 stuffer_in_valid u_stuffer\/_26_:A1 0.000000
36 stuffer_in_valid u_stuffer\/_22_:A1 0.000000
37 stuffer_in_valid _184_:ZN 0.000000
*END

*D_NET sync_next 7.944293
*CONN
*P sync_next B
*I u_sync_detector\/_32_:A2 B
*I u_sync_detector\/_19_:ZN B
*I u_destuffer\/_23_:I B
*I _288_:A1 B
*CAP
1 sync_next 7.917271
2 sync_next u_sync_detector\/_05_ 0.003801
3 sync_next u_sync_detector\/_06_ 0.003801
4 sync_next u_sync_detector\/_07_ 0.015619
5 sync_next u_sync_detector\/match[3] 0.003801
*RES
1 sync_next sync_next:2 22.454600
2 sync_next sync_next:3 22.962200
3 sync_next sync_next:4 36.207200
4 sync_next sync_next:5 35.836800
5 sync_next sync_next:6 20.408000
6 sync_next sync_next:7 15.158700
7 sync_next sync_next:8 17.006900
8 sync_next sync_next:9 15.960300
9 sync_next sync_next:10 21.020500
10 sync_next sync_next:11 21.835600
11 sync_next sync_next:12 17.752400
12 sync_next sync_next:13 20.163300
13 sync_next sync_next:14 11.449900
14 sync_next sync_next:15 9.362000
15 sync_next sync_next:16 9.834700
16 sync_next sync_next:17 6.494200
17 sync_next sync_next:18 6.257000
18 sync_next sync_next:19 2.246900
19 sync_next sync_next:20 7.913300
20 sync_next sync_next:21 10.450600
21 sync_next sync_next:22 0.348100
22 sync_next sync_next:23 5.840200
23 sync_next sync_next:24 11.966700
24 sync_next sync_next:25 14.240500
25 sync_next sync_next:26 7.930600
26 sync_next sync_next:27 7.539500
27 sync_next sync_next:28 24.381900
28 sync_next sync_next:29 13.377800
29 sync_next sync_next:30 15.375000
30 sync_next sync_next:31 22.265200
31 sync_next u_sync_detector\/_32_:A2 0.000000
32 sync_next u_sync_detector\/_19_:ZN 0.000000
33 sync_next u_destuffer\/_23_:I 0.000000
34 sync_next _288_:A1 0.000000
*END

*D_NET tx_bitidx\[0\] 9.965609
*CONN
*P tx_bitidx\[0\] B
*I _327_:Q B
*I _224_:A1 B
*I _221_:I B
*I _183_:A1 B
*I _182_:A1 B
*I _158_:A1 B
*I _150_:A1 B
*CAP
1 tx_bitidx[0] 9.943896
2 tx_bitidx[0] tx_bitidx[1] 0.015524
3 tx_bitidx[0] tx_bitidx[2] 0.006189
*RES
1 tx_bitidx[0] tx_bitidx\[0\]:2 97.543400
2 tx_bitidx[0] tx_bitidx\[0\]:3 38.665500
3 tx_bitidx[0] tx_bitidx\[0\]:4 14.808900
4 tx_bitidx[0] tx_bitidx\[0\]:5 9.775000
5 tx_bitidx[0] tx_bitidx\[0\]:6 6.732500
6 tx_bitidx[0] tx_bitidx\[0\]:7 3.154300
7 tx_bitidx[0] tx_bitidx\[0\]:8 22.806700
8 tx_bitidx[0] tx_bitidx\[0\]:9 11.592900
9 tx_bitidx[0] tx_bitidx\[0\]:10 107.210200
10 tx_bitidx[0] tx_bitidx\[0\]:11 30.176900
11 tx_bitidx[0] tx_bitidx\[0\]:12 54.264400
12 tx_bitidx[0] tx_bitidx\[0\]:13 15.977900
13 tx_bitidx[0] tx_bitidx\[0\]:14 62.877000
14 tx_bitidx[0] tx_bitidx\[0\]:15 82.186400
15 tx_bitidx[0] tx_bitidx\[0\]:16 18.651100
16 tx_bitidx[0] tx_bitidx\[0\]:17 90.826900
17 tx_bitidx[0] _327_:Q 0.000000
18 tx_bitidx[0] _224_:A1 0.000000
19 tx_bitidx[0] _221_:I 0.000000
20 tx_bitidx[0] _183_:A1 0.000000
21 tx_bitidx[0] _182_:A1 0.000000
22 tx_bitidx[0] _158_:A1 0.000000
23 tx_bitidx[0] _150_:A1 0.000000
*END

*D_NET tx_bitidx\[1\] 11.931703
*CONN
*P tx_bitidx\[1\] B
*I _328_:Q B
*I _224_:A2 B
*I _181_:S1 B
*I _179_:I B
*I _158_:A3 B
*I _150_:A3 B
*CAP
1 tx_bitidx[1] 11.918646
2 tx_bitidx[1] tx_bitidx[2] 0.013057
*RES
1 tx_bitidx[1] tx_bitidx\[1\]:2 23.649900
2 tx_bitidx[1] tx_bitidx\[1\]:3 28.968500
3 tx_bitidx[1] tx_bitidx\[1\]:4 35.037000
4 tx_bitidx[1] tx_bitidx\[1\]:5 28.667500
5 tx_bitidx[1] tx_bitidx\[1\]:6 29.299400
6 tx_bitidx[1] tx_bitidx\[1\]:7 35.604000
7 tx_bitidx[1] tx_bitidx\[1\]:8 83.894800
8 tx_bitidx[1] tx_bitidx\[1\]:9 90.264200
9 tx_bitidx[1] tx_bitidx\[1\]:10 90.220400
10 tx_bitidx[1] tx_bitidx\[1\]:11 8.000100
11 tx_bitidx[1] tx_bitidx\[1\]:12 83.515200
12 tx_bitidx[1] tx_bitidx\[1\]:13 33.811100
13 tx_bitidx[1] tx_bitidx\[1\]:14 2.393300
14 tx_bitidx[1] tx_bitidx\[1\]:15 62.967000
15 tx_bitidx[1] tx_bitidx\[1\]:16 39.644900
16 tx_bitidx[1] tx_bitidx\[1\]:17 69.250900
17 tx_bitidx[1] _328_:Q 0.000000
18 tx_bitidx[1] _224_:A2 0.000000
19 tx_bitidx[1] _181_:S1 0.000000
20 tx_bitidx[1] _179_:I 0.000000
21 tx_bitidx[1] _158_:A3 0.000000
22 tx_bitidx[1] _150_:A3 0.000000
*END

*D_NET tx_bitidx\[2\] 14.557107
*CONN
*P tx_bitidx\[2\] B
*I _329_:Q B
*I _227_:I B
*I _181_:S0 B
*I _180_:S0 B
*I _158_:A2 B
*I _150_:A2 B
*CAP
1 tx_bitidx[2] 14.557107
*RES
1 tx_bitidx[2] tx_bitidx\[2\]:2 156.655900
2 tx_bitidx[2] tx_bitidx\[2\]:3 142.177800
3 tx_bitidx[2] tx_bitidx\[2\]:4 72.286400
4 tx_bitidx[2] tx_bitidx\[2\]:5 112.991600
5 tx_bitidx[2] tx_bitidx\[2\]:6 99.051300
6 tx_bitidx[2] tx_bitidx\[2\]:7 100.452300
7 tx_bitidx[2] tx_bitidx\[2\]:8 88.471000
8 tx_bitidx[2] tx_bitidx\[2\]:9 114.180100
9 tx_bitidx[2] tx_bitidx\[2\]:10 26.397600
10 tx_bitidx[2] tx_bitidx\[2\]:11 148.737900
11 tx_bitidx[2] tx_bitidx\[2\]:12 44.095000
12 tx_bitidx[2] tx_bitidx\[2\]:13 36.497900
13 tx_bitidx[2] tx_bitidx\[2\]:14 160.381600
14 tx_bitidx[2] tx_bitidx\[2\]:15 16.352100
15 tx_bitidx[2] tx_bitidx\[2\]:16 166.192700
16 tx_bitidx[2] tx_bitidx\[2\]:17 35.060600
17 tx_bitidx[2] tx_bitidx\[2\]:18 120.421500
18 tx_bitidx[2] tx_bitidx\[2\]:19 152.690900
19 tx_bitidx[2] tx_bitidx\[2\]:20 36.333700
20 tx_bitidx[2] tx_bitidx\[2\]:21 107.883700
21 tx_bitidx[2] tx_bitidx\[2\]:22 96.695900
22 tx_bitidx[2] tx_bitidx\[2\]:23 83.543200
23 tx_bitidx[2] _329_:Q 0.000000
24 tx_bitidx[2] _227_:I 0.000000
25 tx_bitidx[2] _181_:S0 0.000000
26 tx_bitidx[2] _180_:S0 0.000000
27 tx_bitidx[2] _158_:A2 0.000000
28 tx_bitidx[2] _150_:A2 0.000000
*END

*D_NET tx_state\[0\] 9.087163
*CONN
*P tx_state\[0\] B
*I _341_:Q B
*I _199_:A2 B
*I _196_:A2 B
*I _186_:S B
*I _173_:B B
*I _164_:I B
*I _162_:A1 B
*CAP
1 tx_state[0] 9.052980
2 tx_state[0] tx_state[3] 0.034183
*RES
1 tx_state[0] tx_state\[0\]:2 28.024900
2 tx_state[0] tx_state\[0\]:3 43.801300
3 tx_state[0] tx_state\[0\]:4 22.212600
4 tx_state[0] tx_state\[0\]:5 23.176200
5 tx_state[0] tx_state\[0\]:6 42.423100
6 tx_state[0] tx_state\[0\]:7 30.103500
7 tx_state[0] tx_state\[0\]:8 34.846300
8 tx_state[0] tx_state\[0\]:9 44.451900
9 tx_state[0] tx_state\[0\]:10 33.132000
10 tx_state[0] tx_state\[0\]:11 28.721900
11 tx_state[0] tx_state\[0\]:12 75.419600
12 tx_state[0] tx_state\[0\]:13 87.202000
13 tx_state[0] tx_state\[0\]:14 43.415700
14 tx_state[0] tx_state\[0\]:15 51.729300
15 tx_state[0] tx_state\[0\]:16 51.389200
16 tx_state[0] tx_state\[0\]:17 64.096200
17 tx_state[0] _341_:Q 0.000000
18 tx_state[0] _199_:A2 0.000000
19 tx_state[0] _196_:A2 0.000000
20 tx_state[0] _186_:S 0.000000
21 tx_state[0] _173_:B 0.000000
22 tx_state[0] _164_:I 0.000000
23 tx_state[0] _162_:A1 0.000000
*END

*D_NET tx_state\[1\] 2.962914
*CONN
*P tx_state\[1\] B
*I _342_:Q B
*I _277_:A1 B
*I _165_:A1 B
*CAP
1 tx_state[1] 2.962914
*RES
1 tx_state[1] tx_state\[1\]:2 36.961900
2 tx_state[1] tx_state\[1\]:3 51.122300
3 tx_state[1] tx_state\[1\]:4 9.244000
4 tx_state[1] tx_state\[1\]:5 41.301100
5 tx_state[1] tx_state\[1\]:6 19.701500
6 tx_state[1] tx_state\[1\]:7 26.921200
7 tx_state[1] _342_:Q 0.000000
8 tx_state[1] _277_:A1 0.000000
9 tx_state[1] _165_:A1 0.000000
*END

*D_NET tx_state\[2\] 4.882309
*CONN
*P tx_state\[2\] B
*I _343_:Q B
*I _167_:A1 B
*CAP
1 tx_state[2] 4.849915
2 tx_state[2] tx_state[5] 0.009255
3 tx_state[2] u_encoder\/_02_ 0.004628
4 tx_state[2] u_encoder\/_05_ 0.018511
*RES
1 tx_state[2] tx_state\[2\]:2 27.155200
2 tx_state[2] tx_state\[2\]:3 25.910600
3 tx_state[2] tx_state\[2\]:4 27.059900
4 tx_state[2] tx_state\[2\]:5 25.996600
5 tx_state[2] _343_:Q 0.000000
6 tx_state[2] _167_:A1 0.000000
*END

*D_NET tx_state\[3\] 27.973788
*CONN
*P tx_state\[3\] B
*I _160_:B B
*I _173_:A1 B
*I _190_:A2 B
*I _194_:A2 B
*I _225_:A1 B
*I _283_:A2 B
*I _285_:A2 B
*I _291_:A2 B
*I _293_:A2 B
*I _296_:A2 B
*I _344_:Q B
*I _199_:A1 B
*I _197_:A1 B
*I _196_:A1 B
*I _186_:I0 B
*I _151_:I B
*CAP
1 tx_state[3] 27.973788
*RES
1 tx_state[3] tx_state\[3\]:2 69.786600
2 tx_state[3] tx_state\[3\]:3 60.201700
3 tx_state[3] tx_state\[3\]:4 55.663200
4 tx_state[3] tx_state\[3\]:5 40.779100
5 tx_state[3] tx_state\[3\]:6 35.931400
6 tx_state[3] tx_state\[3\]:7 37.339300
7 tx_state[3] tx_state\[3\]:8 48.120100
8 tx_state[3] tx_state\[3\]:9 43.912200
9 tx_state[3] tx_state\[3\]:10 67.142600
10 tx_state[3] tx_state\[3\]:11 48.619100
11 tx_state[3] tx_state\[3\]:12 48.852000
12 tx_state[3] tx_state\[3\]:13 62.474200
13 tx_state[3] tx_state\[3\]:14 43.192500
14 tx_state[3] tx_state\[3\]:15 63.628100
15 tx_state[3] tx_state\[3\]:16 63.023900
16 tx_state[3] tx_state\[3\]:17 52.077300
17 tx_state[3] tx_state\[3\]:18 67.656800
18 tx_state[3] tx_state\[3\]:19 68.222500
19 tx_state[3] tx_state\[3\]:20 67.126700
20 tx_state[3] tx_state\[3\]:21 53.285500
21 tx_state[3] tx_state\[3\]:22 13.366700
22 tx_state[3] tx_state\[3\]:23 4.423300
23 tx_state[3] tx_state\[3\]:24 48.497600
24 tx_state[3] tx_state\[3\]:25 40.055500
25 tx_state[3] tx_state\[3\]:26 70.349100
26 tx_state[3] tx_state\[3\]:27 37.584600
27 tx_state[3] tx_state\[3\]:28 53.422300
28 tx_state[3] tx_state\[3\]:29 1.183800
29 tx_state[3] tx_state\[3\]:30 61.569900
30 tx_state[3] tx_state\[3\]:31 18.272100
31 tx_state[3] tx_state\[3\]:32 74.543700
32 tx_state[3] tx_state\[3\]:33 24.439800
33 tx_state[3] tx_state\[3\]:34 57.907600
34 tx_state[3] tx_state\[3\]:35 39.604300
35 tx_state[3] tx_state\[3\]:36 55.976400
36 tx_state[3] tx_state\[3\]:37 53.001400
37 tx_state[3] tx_state\[3\]:38 59.843400
38 tx_state[3] tx_state\[3\]:39 18.173800
39 tx_state[3] tx_state\[3\]:40 4.292000
40 tx_state[3] tx_state\[3\]:41 22.838800
41 tx_state[3] tx_state\[3\]:42 72.983200
42 tx_state[3] tx_state\[3\]:43 57.177700
43 tx_state[3] tx_state\[3\]:44 28.893900
44 tx_state[3] tx_state\[3\]:45 66.053800
45 tx_state[3] tx_state\[3\]:46 51.375600
46 tx_state[3] tx_state\[3\]:47 27.693700
47 tx_state[3] tx_state\[3\]:48 64.596000
48 tx_state[3] tx_state\[3\]:49 6.040400
49 tx_state[3] tx_state\[3\]:50 68.270400
50 tx_state[3] tx_state\[3\]:51 13.294200
51 tx_state[3] tx_state\[3\]:52 48.087200
52 tx_state[3] tx_state\[3\]:53 61.610200
53 tx_state[3] _160_:B 0.000000
54 tx_state[3] _173_:A1 0.000000
55 tx_state[3] _190_:A2 0.000000
56 tx_state[3] _194_:A2 0.000000
57 tx_state[3] _225_:A1 0.000000
58 tx_state[3] _283_:A2 0.000000
59 tx_state[3] _285_:A2 0.000000
60 tx_state[3] _291_:A2 0.000000
61 tx_state[3] _293_:A2 0.000000
62 tx_state[3] _296_:A2 0.000000
63 tx_state[3] _344_:Q 0.000000
64 tx_state[3] _199_:A1 0.000000
65 tx_state[3] _197_:A1 0.000000
66 tx_state[3] _196_:A1 0.000000
67 tx_state[3] _186_:I0 0.000000
68 tx_state[3] _151_:I 0.000000
*END

*D_NET tx_state\[4\] 4.743457
*CONN
*P tx_state\[4\] B
*I _345_:Q B
*I _250_:A1 B
*I _163_:A1 B
*CAP
1 tx_state[4] 4.724946
2 tx_state[4] tx_state[6] 0.004628
3 tx_state[4] tx_state[8] 0.009255
4 tx_state[4] u_eop_detector\/_09_ 0.004628
*RES
1 tx_state[4] tx_state\[4\]:2 15.366600
2 tx_state[4] tx_state\[4\]:3 20.287200
3 tx_state[4] tx_state\[4\]:4 33.974700
4 tx_state[4] tx_state\[4\]:5 36.547300
5 tx_state[4] tx_state\[4\]:6 45.373700
6 tx_state[4] tx_state\[4\]:7 45.512200
7 tx_state[4] _345_:Q 0.000000
8 tx_state[4] _250_:A1 0.000000
9 tx_state[4] _163_:A1 0.000000
*END

*D_NET tx_state\[5\] 5.966625
*CONN
*P tx_state\[5\] B
*I u_stuffer\/_24_:I B
*I u_encoder\/_13_:A2 B
*I u_encoder\/_11_:A1 B
*I _346_:Q B
*I _157_:I B
*CAP
1 tx_state[5] 5.938990
2 tx_state[5] u_encoder\/_01_ 0.010280
3 tx_state[5] u_encoder\/_02_ 0.004628
4 tx_state[5] u_encoder\/_04_ 0.008099
5 tx_state[5] u_encoder\/_05_ 0.004628
*RES
1 tx_state[5] tx_state\[5\]:2 26.072800
2 tx_state[5] tx_state\[5\]:3 39.691700
3 tx_state[5] tx_state\[5\]:4 46.950000
4 tx_state[5] tx_state\[5\]:5 35.292100
5 tx_state[5] tx_state\[5\]:6 43.321200
6 tx_state[5] tx_state\[5\]:7 28.818800
7 tx_state[5] tx_state\[5\]:8 38.323000
8 tx_state[5] tx_state\[5\]:9 36.070700
9 tx_state[5] tx_state\[5\]:10 47.195700
10 tx_state[5] tx_state\[5\]:11 50.606800
11 tx_state[5] tx_state\[5\]:12 28.543400
12 tx_state[5] tx_state\[5\]:13 39.141800
13 tx_state[5] u_stuffer\/_24_:I 0.000000
14 tx_state[5] u_encoder\/_13_:A2 0.000000
15 tx_state[5] u_encoder\/_11_:A1 0.000000
16 tx_state[5] _346_:Q 0.000000
17 tx_state[5] _157_:I 0.000000
*END

*D_NET tx_state\[6\] 2.438404
*CONN
*P tx_state\[6\] B
*I _347_:Q B
*I _168_:A1 B
*CAP
1 tx_state[6] 2.438404
*RES
1 tx_state[6] tx_state\[6\]:2 19.334900
2 tx_state[6] tx_state\[6\]:3 27.585300
3 tx_state[6] tx_state\[6\]:4 27.310400
4 tx_state[6] tx_state\[6\]:5 19.545700
5 tx_state[6] _347_:Q 0.000000
6 tx_state[6] _168_:A1 0.000000
*END

*D_NET tx_state\[7\] 1.250136
*CONN
*P tx_state\[7\] B
*I _348_:Q B
*I _154_:I B
*CAP
1 tx_state[7] 1.250136
*RES
1 tx_state[7] tx_state\[7\]:2 30.423400
2 tx_state[7] tx_state\[7\]:3 10.652300
3 tx_state[7] tx_state\[7\]:4 9.463800
4 tx_state[7] tx_state\[7\]:5 31.604100
5 tx_state[7] _348_:Q 0.000000
6 tx_state[7] _154_:I 0.000000
*END

*D_NET tx_state\[8\] 2.735369
*CONN
*P tx_state\[8\] B
*I _349_:Q B
*I _250_:A2 B
*I _185_:A1 B
*CAP
1 tx_state[8] 2.735369
*RES
1 tx_state[8] tx_state\[8\]:2 11.198400
2 tx_state[8] tx_state\[8\]:3 43.541000
3 tx_state[8] tx_state\[8\]:4 32.414300
4 tx_state[8] tx_state\[8\]:5 26.867100
5 tx_state[8] tx_state\[8\]:6 45.804300
6 tx_state[8] tx_state\[8\]:7 27.269000
7 tx_state[8] _349_:Q 0.000000
8 tx_state[8] _250_:A2 0.000000
9 tx_state[8] _185_:A1 0.000000
*END

*D_NET txdm 8.170893
*CONN
*P txdm B
*I _340_:Q B
*I _276_:A1 B
*CAP
1 txdm 8.139904
2 txdm u_line_state\/_1_ 0.026361
3 txdm u_line_state\/_2_ 0.004628
*RES
1 txdm txdm:2 36.433900
2 txdm txdm:3 20.860600
3 txdm txdm:4 20.860600
4 txdm txdm:5 36.433900
5 txdm _340_:Q 0.000000
6 txdm _276_:A1 0.000000
*END

*D_NET txdp 8.912134
*CONN
*P txdp B
*I _338_:Q B
*I _251_:I B
*CAP
1 txdp 8.907506
2 txdp u_line_state\/_0_ 0.004628
*RES
1 txdp txdp:2 27.963600
2 txdp txdp:3 29.326900
3 txdp txdp:4 29.879500
4 txdp txdp:5 31.369900
5 txdp _338_:Q 0.000000
6 txdp _251_:I 0.000000
*END

*D_NET u_decoder\/_00_ 3.352381
*CONN
*P u_decoder\/_00_ B
*I u_decoder\/_19_:D B
*I u_decoder\/_12_:ZN B
*CAP
1 u_decoder\/_00_ 3.333967
2 u_decoder\/_00_ u_decoder\/_04_ 0.010811
3 u_decoder\/_00_ u_destuffer\/_08_ 0.007603
*RES
1 u_decoder\/_00_ u_decoder\/_00_:2 20.245300
2 u_decoder\/_00_ u_decoder\/_00_:3 22.577900
3 u_decoder\/_00_ u_decoder\/_00_:4 4.197500
4 u_decoder\/_00_ u_decoder\/_00_:5 2.995800
5 u_decoder\/_00_ u_decoder\/_00_:6 7.181600
6 u_decoder\/_00_ u_decoder\/_00_:7 8.077900
7 u_decoder\/_00_ u_decoder\/_00_:8 6.623500
8 u_decoder\/_00_ u_decoder\/_00_:9 6.555600
9 u_decoder\/_00_ u_decoder\/_00_:10 6.784600
10 u_decoder\/_00_ u_decoder\/_00_:11 5.454200
11 u_decoder\/_00_ u_decoder\/_19_:D 0.000000
12 u_decoder\/_00_ u_decoder\/_12_:ZN 0.000000
*END

*D_NET u_decoder\/_01_ 1.659878
*CONN
*P u_decoder\/_01_ B
*I u_decoder\/_18_:D B
*I u_decoder\/_16_:ZN B
*CAP
1 u_decoder\/_01_ 1.650510
2 u_decoder\/_01_ u_decoder\/_06_ 0.004740
3 u_decoder\/_01_ u_decoder\/_07_ 0.004628
*RES
1 u_decoder\/_01_ u_decoder\/_01_:2 14.969500
2 u_decoder\/_01_ u_decoder\/_01_:3 21.800500
3 u_decoder\/_01_ u_decoder\/_01_:4 12.465800
4 u_decoder\/_01_ u_decoder\/_01_:5 11.935400
5 u_decoder\/_01_ u_decoder\/_01_:6 13.013000
6 u_decoder\/_01_ u_decoder\/_01_:7 2.440700
7 u_decoder\/_01_ u_decoder\/_01_:8 7.431800
8 u_decoder\/_01_ u_decoder\/_18_:D 0.000000
9 u_decoder\/_01_ u_decoder\/_16_:ZN 0.000000
*END

*D_NET u_decoder\/_02_ 2.461726
*CONN
*P u_decoder\/_02_ B
*I u_decoder\/_20_:D B
*I u_decoder\/_17_:Z B
*CAP
1 u_decoder\/_02_ 2.457098
2 u_decoder\/_02_ u_decoder\/_07_ 0.004628
*RES
1 u_decoder\/_02_ u_decoder\/_02_:2 18.410600
2 u_decoder\/_02_ u_decoder\/_02_:3 25.568300
3 u_decoder\/_02_ u_decoder\/_02_:4 19.400000
4 u_decoder\/_02_ u_decoder\/_02_:5 24.548600
5 u_decoder\/_02_ u_decoder\/_20_:D 0.000000
6 u_decoder\/_02_ u_decoder\/_17_:Z 0.000000
*END

*D_NET u_decoder\/_03_ 2.864833
*CONN
*P u_decoder\/_03_ B
*I u_decoder\/_12_:A2 B
*I u_decoder\/_09_:Z B
*CAP
1 u_decoder\/_03_ 2.864833
*RES
1 u_decoder\/_03_ u_decoder\/_03_:2 31.601500
2 u_decoder\/_03_ u_decoder\/_03_:3 30.646900
3 u_decoder\/_03_ u_decoder\/_03_:4 22.575300
4 u_decoder\/_03_ u_decoder\/_03_:5 22.431800
5 u_decoder\/_03_ u_decoder\/_03_:6 28.277300
6 u_decoder\/_03_ u_decoder\/_03_:7 28.421700
7 u_decoder\/_03_ u_decoder\/_03_:8 25.191700
8 u_decoder\/_03_ u_decoder\/_03_:9 25.335700
9 u_decoder\/_03_ u_decoder\/_12_:A2 0.000000
10 u_decoder\/_03_ u_decoder\/_09_:Z 0.000000
*END

*D_NET u_decoder\/_04_ 3.343397
*CONN
*P u_decoder\/_04_ B
*I u_decoder\/_14_:A1 B
*I u_decoder\/_11_:B B
*I u_decoder\/_10_:ZN B
*CAP
1 u_decoder\/_04_ 3.327125
2 u_decoder\/_04_ u_decoder\/_07_ 0.016272
*RES
1 u_decoder\/_04_ u_decoder\/_04_:2 50.217300
2 u_decoder\/_04_ u_decoder\/_04_:3 37.459600
3 u_decoder\/_04_ u_decoder\/_04_:4 7.513300
4 u_decoder\/_04_ u_decoder\/_04_:5 5.787300
5 u_decoder\/_04_ u_decoder\/_04_:6 50.299700
6 u_decoder\/_04_ u_decoder\/_04_:7 39.632200
7 u_decoder\/_04_ u_decoder\/_14_:A1 0.000000
8 u_decoder\/_04_ u_decoder\/_11_:B 0.000000
9 u_decoder\/_04_ u_decoder\/_10_:ZN 0.000000
*END

*D_NET u_decoder\/_05_ 2.359600
*CONN
*P u_decoder\/_05_ B
*I u_decoder\/_12_:B B
*I u_decoder\/_11_:ZN B
*CAP
1 u_decoder\/_05_ 2.359600
*RES
1 u_decoder\/_05_ u_decoder\/_05_:2 11.218200
2 u_decoder\/_05_ u_decoder\/_05_:3 29.961600
3 u_decoder\/_05_ u_decoder\/_05_:4 25.524900
4 u_decoder\/_05_ u_decoder\/_05_:5 8.993000
5 u_decoder\/_05_ u_decoder\/_05_:6 29.290700
6 u_decoder\/_05_ u_decoder\/_05_:7 23.777700
7 u_decoder\/_05_ u_decoder\/_05_:8 23.025300
8 u_decoder\/_05_ u_decoder\/_05_:9 13.246700
9 u_decoder\/_05_ u_decoder\/_05_:10 6.178500
10 u_decoder\/_05_ u_decoder\/_12_:B 0.000000
11 u_decoder\/_05_ u_decoder\/_11_:ZN 0.000000
*END

*D_NET u_decoder\/_06_ 1.910634
*CONN
*P u_decoder\/_06_ B
*I u_decoder\/_16_:A1 B
*I u_decoder\/_13_:ZN B
*CAP
1 u_decoder\/_06_ 1.900552
2 u_decoder\/_06_ u_decoder\/_07_ 0.004628
3 u_decoder\/_06_ u_decoder\/prev_line 0.005454
*RES
1 u_decoder\/_06_ u_decoder\/_06_:2 26.301700
2 u_decoder\/_06_ u_decoder\/_06_:3 16.410800
3 u_decoder\/_06_ u_decoder\/_06_:4 25.760700
4 u_decoder\/_06_ u_decoder\/_06_:5 16.902600
5 u_decoder\/_06_ u_decoder\/_16_:A1 0.000000
6 u_decoder\/_06_ u_decoder\/_13_:ZN 0.000000
*END

*D_NET u_decoder\/_07_ 3.432374
*CONN
*P u_decoder\/_07_ B
*I u_decoder\/_17_:A2 B
*I u_decoder\/_16_:B B
*I u_decoder\/_14_:Z B
*CAP
1 u_decoder\/_07_ 3.432374
*RES
1 u_decoder\/_07_ u_decoder\/_07_:2 38.930500
2 u_decoder\/_07_ u_decoder\/_07_:3 44.523900
3 u_decoder\/_07_ u_decoder\/_07_:4 41.612200
4 u_decoder\/_07_ u_decoder\/_07_:5 29.017900
5 u_decoder\/_07_ u_decoder\/_07_:6 24.515200
6 u_decoder\/_07_ u_decoder\/_07_:7 13.307700
7 u_decoder\/_07_ u_decoder\/_17_:A2 0.000000
8 u_decoder\/_07_ u_decoder\/_16_:B 0.000000
9 u_decoder\/_07_ u_decoder\/_14_:Z 0.000000
*END

*D_NET u_decoder\/_08_ 1.575520
*CONN
*P u_decoder\/_08_ B
*I u_decoder\/_16_:C B
*I u_decoder\/_15_:ZN B
*CAP
1 u_decoder\/_08_ 1.575520
*RES
1 u_decoder\/_08_ u_decoder\/_08_:2 21.329500
2 u_decoder\/_08_ u_decoder\/_08_:3 19.652600
3 u_decoder\/_08_ u_decoder\/_08_:4 18.289300
4 u_decoder\/_08_ u_decoder\/_08_:5 10.049100
5 u_decoder\/_08_ u_decoder\/_08_:6 15.982900
6 u_decoder\/_08_ u_decoder\/_16_:C 0.000000
7 u_decoder\/_08_ u_decoder\/_15_:ZN 0.000000
*END

*D_NET u_decoder\/prev_line 3.811018
*CONN
*P u_decoder\/prev_line B
*I u_decoder\/_18_:Q B
*I u_decoder\/_13_:I B
*I u_decoder\/_09_:A1 B
*CAP
1 u_decoder\/prev_line 3.811018
*RES
1 u_decoder\/prev_line u_decoder\/prev_line:2 40.408300
2 u_decoder\/prev_line u_decoder\/prev_line:3 26.274700
3 u_decoder\/prev_line u_decoder\/prev_line:4 26.333600
4 u_decoder\/prev_line u_decoder\/prev_line:5 40.629800
5 u_decoder\/prev_line u_decoder\/prev_line:6 54.161800
6 u_decoder\/prev_line u_decoder\/prev_line:7 41.817100
7 u_decoder\/prev_line u_decoder\/prev_line:8 31.200100
8 u_decoder\/prev_line u_decoder\/prev_line:9 20.575700
9 u_decoder\/prev_line u_decoder\/_18_:Q 0.000000
10 u_decoder\/prev_line u_decoder\/_13_:I 0.000000
11 u_decoder\/prev_line u_decoder\/_09_:A1 0.000000
*END

*D_NET u_destuffer\/_00_ 2.274465
*CONN
*P u_destuffer\/_00_ B
*I u_destuffer\/_44_:D B
*I u_destuffer\/_25_:ZN B
*CAP
1 u_destuffer\/_00_ 2.274465
*RES
1 u_destuffer\/_00_ u_destuffer\/_00_:2 6.490300
2 u_destuffer\/_00_ u_destuffer\/_00_:3 19.788000
3 u_destuffer\/_00_ u_destuffer\/_00_:4 22.857200
4 u_destuffer\/_00_ u_destuffer\/_00_:5 10.295200
5 u_destuffer\/_00_ u_destuffer\/_00_:6 15.122300
6 u_destuffer\/_00_ u_destuffer\/_00_:7 12.529600
7 u_destuffer\/_00_ u_destuffer\/_44_:D 0.000000
8 u_destuffer\/_00_ u_destuffer\/_25_:ZN 0.000000
*END

*D_NET u_destuffer\/_01_ 2.092402
*CONN
*P u_destuffer\/_01_ B
*I u_destuffer\/_45_:D B
*I u_destuffer\/_30_:ZN B
*CAP
1 u_destuffer\/_01_ 2.092402
*RES
1 u_destuffer\/_01_ u_destuffer\/_01_:2 15.678700
2 u_destuffer\/_01_ u_destuffer\/_01_:3 8.060800
3 u_destuffer\/_01_ u_destuffer\/_01_:4 10.657500
4 u_destuffer\/_01_ u_destuffer\/_01_:5 10.803100
5 u_destuffer\/_01_ u_destuffer\/_01_:6 11.885800
6 u_destuffer\/_01_ u_destuffer\/_01_:7 11.912000
7 u_destuffer\/_01_ u_destuffer\/_01_:8 6.365500
8 u_destuffer\/_01_ u_destuffer\/_01_:9 2.219500
9 u_destuffer\/_01_ u_destuffer\/_01_:10 6.511100
10 u_destuffer\/_01_ u_destuffer\/_01_:11 2.073900
11 u_destuffer\/_01_ u_destuffer\/_45_:D 0.000000
12 u_destuffer\/_01_ u_destuffer\/_30_:ZN 0.000000
*END

*D_NET u_destuffer\/_02_ 2.527598
*CONN
*P u_destuffer\/_02_ B
*I u_destuffer\/_46_:D B
*I u_destuffer\/_33_:ZN B
*CAP
1 u_destuffer\/_02_ 2.512394
2 u_destuffer\/_02_ u_destuffer\/_11_ 0.003801
3 u_destuffer\/_02_ u_destuffer\/_14_ 0.003801
4 u_destuffer\/_02_ u_destuffer\/ones[0] 0.003801
5 u_destuffer\/_02_ u_destuffer\/ones[1] 0.003801
*RES
1 u_destuffer\/_02_ u_destuffer\/_02_:2 20.441600
2 u_destuffer\/_02_ u_destuffer\/_02_:3 18.640600
3 u_destuffer\/_02_ u_destuffer\/_02_:4 2.436700
4 u_destuffer\/_02_ u_destuffer\/_02_:5 11.359500
5 u_destuffer\/_02_ u_destuffer\/_02_:6 8.130400
6 u_destuffer\/_02_ u_destuffer\/_02_:7 9.524900
7 u_destuffer\/_02_ u_destuffer\/_02_:8 0.324600
8 u_destuffer\/_02_ u_destuffer\/_02_:9 5.841200
9 u_destuffer\/_02_ u_destuffer\/_02_:10 8.600300
10 u_destuffer\/_02_ u_destuffer\/_02_:11 3.082100
11 u_destuffer\/_02_ u_destuffer\/_46_:D 0.000000
12 u_destuffer\/_02_ u_destuffer\/_33_:ZN 0.000000
*END

*D_NET u_destuffer\/_03_ 2.459382
*CONN
*P u_destuffer\/_03_ B
*I u_destuffer\/_47_:D B
*I u_destuffer\/_36_:ZN B
*CAP
1 u_destuffer\/_03_ 2.428943
2 u_destuffer\/_03_ u_destuffer\/_09_ 0.003801
3 u_destuffer\/_03_ u_destuffer\/_11_ 0.004988
4 u_destuffer\/_03_ u_destuffer\/_15_ 0.004297
5 u_destuffer\/_03_ u_destuffer\/_16_ 0.004297
6 u_destuffer\/_03_ u_destuffer\/ones[1] 0.003801
7 u_destuffer\/_03_ u_destuffer\/ones[2] 0.009255
*RES
1 u_destuffer\/_03_ u_destuffer\/_03_:2 13.342100
2 u_destuffer\/_03_ u_destuffer\/_03_:3 16.293700
3 u_destuffer\/_03_ u_destuffer\/_03_:4 6.213800
4 u_destuffer\/_03_ u_destuffer\/_03_:5 2.502400
5 u_destuffer\/_03_ u_destuffer\/_03_:6 1.800600
6 u_destuffer\/_03_ u_destuffer\/_03_:7 5.027500
7 u_destuffer\/_03_ u_destuffer\/_03_:8 3.095200
8 u_destuffer\/_03_ u_destuffer\/_03_:9 12.152700
9 u_destuffer\/_03_ u_destuffer\/_03_:10 10.002300
10 u_destuffer\/_03_ u_destuffer\/_03_:11 7.980400
11 u_destuffer\/_03_ u_destuffer\/_03_:12 5.108500
12 u_destuffer\/_03_ u_destuffer\/_03_:13 4.281600
13 u_destuffer\/_03_ u_destuffer\/_47_:D 0.000000
14 u_destuffer\/_03_ u_destuffer\/_36_:ZN 0.000000
*END

*D_NET u_destuffer\/_04_ 2.677598
*CONN
*P u_destuffer\/_04_ B
*I u_destuffer\/_49_:D B
*I u_destuffer\/_38_:ZN B
*CAP
1 u_destuffer\/_04_ 2.638251
2 u_destuffer\/_04_ u_destuffer\/_05_ 0.003801
3 u_destuffer\/_04_ u_destuffer\/_06_ 0.004628
4 u_destuffer\/_04_ u_destuffer\/_08_ 0.018720
5 u_destuffer\/_04_ u_destuffer\/_17_ 0.007570
6 u_destuffer\/_04_ u_destuffer\/ones[0] 0.004628
*RES
1 u_destuffer\/_04_ u_destuffer\/_04_:2 14.824000
2 u_destuffer\/_04_ u_destuffer\/_04_:3 23.794000
3 u_destuffer\/_04_ u_destuffer\/_04_:4 20.103300
4 u_destuffer\/_04_ u_destuffer\/_04_:5 8.773300
5 u_destuffer\/_04_ u_destuffer\/_04_:6 11.418100
6 u_destuffer\/_04_ u_destuffer\/_04_:7 9.912300
7 u_destuffer\/_04_ u_destuffer\/_49_:D 0.000000
8 u_destuffer\/_04_ u_destuffer\/_38_:ZN 0.000000
*END

*D_NET u_destuffer\/_05_ 4.514850
*CONN
*P u_destuffer\/_05_ B
*I u_destuffer\/_48_:D B
*I u_destuffer\/_43_:ZN B
*CAP
1 u_destuffer\/_05_ 4.484109
2 u_destuffer\/_05_ u_destuffer\/_08_ 0.003801
3 u_destuffer\/_05_ u_destuffer\/_17_ 0.003801
4 u_destuffer\/_05_ u_destuffer\/_20_ 0.004628
5 u_destuffer\/_05_ u_destuffer\/ones[1] 0.013883
6 u_destuffer\/_05_ u_destuffer\/ones[2] 0.004628
*RES
1 u_destuffer\/_05_ u_destuffer\/_05_:2 19.726800
2 u_destuffer\/_05_ u_destuffer\/_05_:3 19.498600
3 u_destuffer\/_05_ u_destuffer\/_05_:4 1.614500
4 u_destuffer\/_05_ u_destuffer\/_05_:5 2.150400
5 u_destuffer\/_05_ u_destuffer\/_05_:6 6.979800
6 u_destuffer\/_05_ u_destuffer\/_05_:7 4.350400
7 u_destuffer\/_05_ u_destuffer\/_05_:8 6.101400
8 u_destuffer\/_05_ u_destuffer\/_05_:9 2.620100
9 u_destuffer\/_05_ u_destuffer\/_05_:10 3.480700
10 u_destuffer\/_05_ u_destuffer\/_05_:11 5.224600
11 u_destuffer\/_05_ u_destuffer\/_05_:12 1.781600
12 u_destuffer\/_05_ u_destuffer\/_05_:13 1.021300
13 u_destuffer\/_05_ u_destuffer\/_05_:14 5.396500
14 u_destuffer\/_05_ u_destuffer\/_05_:15 3.554500
15 u_destuffer\/_05_ u_destuffer\/_05_:16 2.780600
16 u_destuffer\/_05_ u_destuffer\/_05_:17 2.236100
17 u_destuffer\/_05_ u_destuffer\/_05_:18 2.948000
18 u_destuffer\/_05_ u_destuffer\/_05_:19 6.249200
19 u_destuffer\/_05_ u_destuffer\/_48_:D 0.000000
20 u_destuffer\/_05_ u_destuffer\/_43_:ZN 0.000000
*END

*D_NET u_destuffer\/_06_ 8.503122
*CONN
*P u_destuffer\/_06_ B
*I u_destuffer\/_37_:A2 B
*I u_destuffer\/_28_:A2 B
*I u_destuffer\/_25_:A2 B
*I u_destuffer\/_22_:ZN B
*CAP
1 u_destuffer\/_06_ 8.440066
2 u_destuffer\/_06_ u_destuffer\/_08_ 0.009205
3 u_destuffer\/_06_ u_destuffer\/_09_ 0.008512
4 u_destuffer\/_06_ u_destuffer\/_10_ 0.000826
5 u_destuffer\/_06_ u_destuffer\/_11_ 0.007603
6 u_destuffer\/_06_ u_destuffer\/_17_ 0.008429
7 u_destuffer\/_06_ u_destuffer\/_20_ 0.004628
8 u_destuffer\/_06_ u_destuffer\/ones[0] 0.004710
9 u_destuffer\/_06_ u_destuffer\/ones[1] 0.007603
10 u_destuffer\/_06_ u_destuffer\/ones[2] 0.011540
*RES
1 u_destuffer\/_06_ u_destuffer\/_06_:2 27.456700
2 u_destuffer\/_06_ u_destuffer\/_06_:3 34.565400
3 u_destuffer\/_06_ u_destuffer\/_06_:4 31.019100
4 u_destuffer\/_06_ u_destuffer\/_06_:5 33.412700
5 u_destuffer\/_06_ u_destuffer\/_06_:6 28.510700
6 u_destuffer\/_06_ u_destuffer\/_06_:7 26.706000
7 u_destuffer\/_06_ u_destuffer\/_06_:8 22.770700
8 u_destuffer\/_06_ u_destuffer\/_06_:9 25.960500
9 u_destuffer\/_06_ u_destuffer\/_06_:10 18.574300
10 u_destuffer\/_06_ u_destuffer\/_06_:11 20.613900
11 u_destuffer\/_06_ u_destuffer\/_06_:12 24.975500
12 u_destuffer\/_06_ u_destuffer\/_06_:13 23.056600
13 u_destuffer\/_06_ u_destuffer\/_06_:14 17.804500
14 u_destuffer\/_06_ u_destuffer\/_06_:15 33.325900
15 u_destuffer\/_06_ u_destuffer\/_06_:16 22.654600
16 u_destuffer\/_06_ u_destuffer\/_06_:17 26.854300
17 u_destuffer\/_06_ u_destuffer\/_06_:18 31.150400
18 u_destuffer\/_06_ u_destuffer\/_06_:19 29.686200
19 u_destuffer\/_06_ u_destuffer\/_06_:20 32.264500
20 u_destuffer\/_06_ u_destuffer\/_06_:21 24.739400
21 u_destuffer\/_06_ u_destuffer\/_06_:22 28.993000
22 u_destuffer\/_06_ u_destuffer\/_06_:23 23.250600
23 u_destuffer\/_06_ u_destuffer\/_06_:24 20.787000
24 u_destuffer\/_06_ u_destuffer\/_06_:25 35.507900
25 u_destuffer\/_06_ u_destuffer\/_06_:26 33.323000
26 u_destuffer\/_06_ u_destuffer\/_06_:27 20.609400
27 u_destuffer\/_06_ u_destuffer\/_37_:A2 0.000000
28 u_destuffer\/_06_ u_destuffer\/_28_:A2 0.000000
29 u_destuffer\/_06_ u_destuffer\/_25_:A2 0.000000
30 u_destuffer\/_06_ u_destuffer\/_22_:ZN 0.000000
*END

*D_NET u_destuffer\/_07_ 6.335715
*CONN
*P u_destuffer\/_07_ B
*I u_destuffer\/_26_:A1 B
*I u_destuffer\/_24_:A3 B
*I u_destuffer\/_23_:ZN B
*CAP
1 u_destuffer\/_07_ 6.309407
2 u_destuffer\/_07_ u_destuffer\/_08_ 0.010377
3 u_destuffer\/_07_ u_destuffer\/_09_ 0.012130
4 u_destuffer\/_07_ u_destuffer\/ones[0] 0.003801
*RES
1 u_destuffer\/_07_ u_destuffer\/_07_:2 22.721900
2 u_destuffer\/_07_ u_destuffer\/_07_:3 21.874600
3 u_destuffer\/_07_ u_destuffer\/_07_:4 25.200700
4 u_destuffer\/_07_ u_destuffer\/_07_:5 29.992700
5 u_destuffer\/_07_ u_destuffer\/_07_:6 38.143900
6 u_destuffer\/_07_ u_destuffer\/_07_:7 15.836700
7 u_destuffer\/_07_ u_destuffer\/_07_:8 13.131700
8 u_destuffer\/_07_ u_destuffer\/_07_:9 36.023400
9 u_destuffer\/_07_ u_destuffer\/_07_:10 5.859600
10 u_destuffer\/_07_ u_destuffer\/_07_:11 10.971700
11 u_destuffer\/_07_ u_destuffer\/_07_:12 36.594700
12 u_destuffer\/_07_ u_destuffer\/_07_:13 38.880200
13 u_destuffer\/_07_ u_destuffer\/_07_:14 51.005300
14 u_destuffer\/_07_ u_destuffer\/_07_:15 41.351200
15 u_destuffer\/_07_ u_destuffer\/_07_:16 48.729500
16 u_destuffer\/_07_ u_destuffer\/_07_:17 49.607800
17 u_destuffer\/_07_ u_destuffer\/_07_:18 37.060500
18 u_destuffer\/_07_ u_destuffer\/_07_:19 35.910100
19 u_destuffer\/_07_ u_destuffer\/_26_:A1 0.000000
20 u_destuffer\/_07_ u_destuffer\/_24_:A3 0.000000
21 u_destuffer\/_07_ u_destuffer\/_23_:ZN 0.000000
*END

*D_NET u_destuffer\/_08_ 7.839448
*CONN
*P u_destuffer\/_08_ B
*I u_destuffer\/_43_:B1 B
*I u_destuffer\/_25_:A3 B
*I u_destuffer\/_24_:ZN B
*CAP
1 u_destuffer\/_08_ 7.799983
2 u_destuffer\/_08_ u_destuffer\/_10_ 0.009255
3 u_destuffer\/_08_ u_destuffer\/_11_ 0.008031
4 u_destuffer\/_08_ u_destuffer\/_17_ 0.008429
5 u_destuffer\/_08_ u_destuffer\/ones[0] 0.013750
*RES
1 u_destuffer\/_08_ u_destuffer\/_08_:2 12.227800
2 u_destuffer\/_08_ u_destuffer\/_08_:3 21.310000
3 u_destuffer\/_08_ u_destuffer\/_08_:4 20.944900
4 u_destuffer\/_08_ u_destuffer\/_08_:5 23.525200
5 u_destuffer\/_08_ u_destuffer\/_08_:6 22.868400
6 u_destuffer\/_08_ u_destuffer\/_08_:7 25.938600
7 u_destuffer\/_08_ u_destuffer\/_08_:8 24.575600
8 u_destuffer\/_08_ u_destuffer\/_08_:9 26.519400
9 u_destuffer\/_08_ u_destuffer\/_08_:10 24.259700
10 u_destuffer\/_08_ u_destuffer\/_08_:11 8.886900
11 u_destuffer\/_08_ u_destuffer\/_08_:12 16.078500
12 u_destuffer\/_08_ u_destuffer\/_08_:13 11.285100
13 u_destuffer\/_08_ u_destuffer\/_08_:14 10.562700
14 u_destuffer\/_08_ u_destuffer\/_08_:15 15.156300
15 u_destuffer\/_08_ u_destuffer\/_08_:16 11.063200
16 u_destuffer\/_08_ u_destuffer\/_08_:17 10.640700
17 u_destuffer\/_08_ u_destuffer\/_08_:18 12.070300
18 u_destuffer\/_08_ u_destuffer\/_08_:19 13.470900
19 u_destuffer\/_08_ u_destuffer\/_08_:20 12.408000
20 u_destuffer\/_08_ u_destuffer\/_08_:21 10.896300
21 u_destuffer\/_08_ u_destuffer\/_08_:22 12.728700
22 u_destuffer\/_08_ u_destuffer\/_08_:23 11.793900
23 u_destuffer\/_08_ u_destuffer\/_08_:24 11.510100
24 u_destuffer\/_08_ u_destuffer\/_08_:25 14.283900
25 u_destuffer\/_08_ u_destuffer\/_08_:26 10.528000
26 u_destuffer\/_08_ u_destuffer\/_08_:27 10.743500
27 u_destuffer\/_08_ u_destuffer\/_08_:28 11.756200
28 u_destuffer\/_08_ u_destuffer\/_08_:29 9.043100
29 u_destuffer\/_08_ u_destuffer\/_08_:30 8.202000
30 u_destuffer\/_08_ u_destuffer\/_08_:31 12.900000
31 u_destuffer\/_08_ u_destuffer\/_43_:B1 0.000000
32 u_destuffer\/_08_ u_destuffer\/_25_:A3 0.000000
33 u_destuffer\/_08_ u_destuffer\/_24_:ZN 0.000000
*END

*D_NET u_destuffer\/_09_ 13.548830
*CONN
*P u_destuffer\/_09_ B
*I u_destuffer\/_43_:A2 B
*I u_destuffer\/_38_:A3 B
*I u_destuffer\/_36_:C B
*I u_destuffer\/_33_:A1 B
*I u_destuffer\/_30_:A1 B
*I u_destuffer\/_26_:ZN B
*CAP
1 u_destuffer\/_09_ 13.442394
2 u_destuffer\/_09_ u_destuffer\/_10_ 0.009255
3 u_destuffer\/_09_ u_destuffer\/_11_ 0.025287
4 u_destuffer\/_09_ u_destuffer\/_12_ 0.005371
5 u_destuffer\/_09_ u_destuffer\/_14_ 0.006280
6 u_destuffer\/_09_ u_destuffer\/_18_ 0.004628
7 u_destuffer\/_09_ u_destuffer\/_20_ 0.007685
8 u_destuffer\/_09_ u_destuffer\/_21_ 0.007603
9 u_destuffer\/_09_ u_destuffer\/ones[0] 0.023139
10 u_destuffer\/_09_ u_destuffer\/ones[1] 0.010908
11 u_destuffer\/_09_ u_destuffer\/ones[2] 0.006280
*RES
1 u_destuffer\/_09_ u_destuffer\/_09_:2 25.155500
2 u_destuffer\/_09_ u_destuffer\/_09_:3 50.289700
3 u_destuffer\/_09_ u_destuffer\/_09_:4 44.468200
4 u_destuffer\/_09_ u_destuffer\/_09_:5 41.796600
5 u_destuffer\/_09_ u_destuffer\/_09_:6 41.187200
6 u_destuffer\/_09_ u_destuffer\/_09_:7 40.291700
7 u_destuffer\/_09_ u_destuffer\/_09_:8 32.308400
8 u_destuffer\/_09_ u_destuffer\/_09_:9 25.273900
9 u_destuffer\/_09_ u_destuffer\/_09_:10 24.222700
10 u_destuffer\/_09_ u_destuffer\/_09_:11 47.943600
11 u_destuffer\/_09_ u_destuffer\/_09_:12 34.190500
12 u_destuffer\/_09_ u_destuffer\/_09_:13 47.413300
13 u_destuffer\/_09_ u_destuffer\/_09_:14 46.637500
14 u_destuffer\/_09_ u_destuffer\/_09_:15 24.137200
15 u_destuffer\/_09_ u_destuffer\/_09_:16 26.652700
16 u_destuffer\/_09_ u_destuffer\/_09_:17 27.621400
17 u_destuffer\/_09_ u_destuffer\/_09_:18 24.861800
18 u_destuffer\/_09_ u_destuffer\/_09_:19 27.344600
19 u_destuffer\/_09_ u_destuffer\/_09_:20 30.798200
20 u_destuffer\/_09_ u_destuffer\/_09_:21 37.491600
21 u_destuffer\/_09_ u_destuffer\/_09_:22 39.125200
22 u_destuffer\/_09_ u_destuffer\/_09_:23 31.631600
23 u_destuffer\/_09_ u_destuffer\/_09_:24 39.564200
24 u_destuffer\/_09_ u_destuffer\/_09_:25 37.662600
25 u_destuffer\/_09_ u_destuffer\/_09_:26 41.784100
26 u_destuffer\/_09_ u_destuffer\/_09_:27 43.671100
27 u_destuffer\/_09_ u_destuffer\/_09_:28 35.812100
28 u_destuffer\/_09_ u_destuffer\/_09_:29 41.509800
29 u_destuffer\/_09_ u_destuffer\/_43_:A2 0.000000
30 u_destuffer\/_09_ u_destuffer\/_38_:A3 0.000000
31 u_destuffer\/_09_ u_destuffer\/_36_:C 0.000000
32 u_destuffer\/_09_ u_destuffer\/_33_:A1 0.000000
33 u_destuffer\/_09_ u_destuffer\/_30_:A1 0.000000
34 u_destuffer\/_09_ u_destuffer\/_26_:ZN 0.000000
*END

*D_NET u_destuffer\/_10_ 9.655456
*CONN
*P u_destuffer\/_10_ B
*I u_destuffer\/_42_:B B
*I u_destuffer\/_38_:A1 B
*I u_destuffer\/_28_:B B
*I u_destuffer\/_27_:ZN B
*CAP
1 u_destuffer\/_10_ 9.626259
2 u_destuffer\/_10_ u_destuffer\/_11_ 0.013057
3 u_destuffer\/_10_ u_destuffer\/_21_ 0.006885
4 u_destuffer\/_10_ u_destuffer\/ones[0] 0.009255
*RES
1 u_destuffer\/_10_ u_destuffer\/_10_:2 35.179500
2 u_destuffer\/_10_ u_destuffer\/_10_:3 39.841700
3 u_destuffer\/_10_ u_destuffer\/_10_:4 33.588800
4 u_destuffer\/_10_ u_destuffer\/_10_:5 10.106200
5 u_destuffer\/_10_ u_destuffer\/_10_:6 12.680300
6 u_destuffer\/_10_ u_destuffer\/_10_:7 32.147000
7 u_destuffer\/_10_ u_destuffer\/_10_:8 12.339700
8 u_destuffer\/_10_ u_destuffer\/_10_:9 7.621700
9 u_destuffer\/_10_ u_destuffer\/_10_:10 15.299000
10 u_destuffer\/_10_ u_destuffer\/_10_:11 30.875000
11 u_destuffer\/_10_ u_destuffer\/_10_:12 17.878900
12 u_destuffer\/_10_ u_destuffer\/_10_:13 36.545200
13 u_destuffer\/_10_ u_destuffer\/_10_:14 17.269100
14 u_destuffer\/_10_ u_destuffer\/_10_:15 15.866300
15 u_destuffer\/_10_ u_destuffer\/_10_:16 13.998000
16 u_destuffer\/_10_ u_destuffer\/_10_:17 37.514900
17 u_destuffer\/_10_ u_destuffer\/_10_:18 38.617400
18 u_destuffer\/_10_ u_destuffer\/_10_:19 24.187100
19 u_destuffer\/_10_ u_destuffer\/_10_:20 39.874100
20 u_destuffer\/_10_ u_destuffer\/_10_:21 46.464100
21 u_destuffer\/_10_ u_destuffer\/_10_:22 46.044400
22 u_destuffer\/_10_ u_destuffer\/_10_:23 45.675700
23 u_destuffer\/_10_ u_destuffer\/_10_:24 45.780700
24 u_destuffer\/_10_ u_destuffer\/_10_:25 39.392500
25 u_destuffer\/_10_ u_destuffer\/_10_:26 39.092400
26 u_destuffer\/_10_ u_destuffer\/_10_:27 38.977700
27 u_destuffer\/_10_ u_destuffer\/_42_:B 0.000000
28 u_destuffer\/_10_ u_destuffer\/_38_:A1 0.000000
29 u_destuffer\/_10_ u_destuffer\/_28_:B 0.000000
30 u_destuffer\/_10_ u_destuffer\/_27_:ZN 0.000000
*END

*D_NET u_destuffer\/_11_ 9.190704
*CONN
*P u_destuffer\/_11_ B
*I u_destuffer\/_36_:B B
*I u_destuffer\/_33_:A2 B
*I u_destuffer\/_30_:A2 B
*I u_destuffer\/_28_:ZN B
*CAP
1 u_destuffer\/_11_ 9.124925
2 u_destuffer\/_11_ u_destuffer\/_12_ 0.011404
3 u_destuffer\/_11_ u_destuffer\/_14_ 0.003801
4 u_destuffer\/_11_ u_destuffer\/_16_ 0.004628
5 u_destuffer\/_11_ u_destuffer\/ones[0] 0.020659
6 u_destuffer\/_11_ u_destuffer\/ones[1] 0.012230
7 u_destuffer\/_11_ u_destuffer\/ones[2] 0.013057
*RES
1 u_destuffer\/_11_ u_destuffer\/_11_:2 39.937200
2 u_destuffer\/_11_ u_destuffer\/_11_:3 15.901300
3 u_destuffer\/_11_ u_destuffer\/_11_:4 14.076100
4 u_destuffer\/_11_ u_destuffer\/_11_:5 32.529600
5 u_destuffer\/_11_ u_destuffer\/_11_:6 38.546800
6 u_destuffer\/_11_ u_destuffer\/_11_:7 32.444900
7 u_destuffer\/_11_ u_destuffer\/_11_:8 38.997900
8 u_destuffer\/_11_ u_destuffer\/_11_:9 36.340500
9 u_destuffer\/_11_ u_destuffer\/_11_:10 22.700400
10 u_destuffer\/_11_ u_destuffer\/_11_:11 43.203400
11 u_destuffer\/_11_ u_destuffer\/_11_:12 21.465300
12 u_destuffer\/_11_ u_destuffer\/_11_:13 30.411500
13 u_destuffer\/_11_ u_destuffer\/_11_:14 29.115800
14 u_destuffer\/_11_ u_destuffer\/_11_:15 23.739400
15 u_destuffer\/_11_ u_destuffer\/_11_:16 26.424000
16 u_destuffer\/_11_ u_destuffer\/_11_:17 6.969100
17 u_destuffer\/_11_ u_destuffer\/_11_:18 15.878500
18 u_destuffer\/_11_ u_destuffer\/_11_:19 9.391300
19 u_destuffer\/_11_ u_destuffer\/_11_:20 18.537700
20 u_destuffer\/_11_ u_destuffer\/_11_:21 23.512700
21 u_destuffer\/_11_ u_destuffer\/_11_:22 31.812800
22 u_destuffer\/_11_ u_destuffer\/_11_:23 17.171100
23 u_destuffer\/_11_ u_destuffer\/_11_:24 21.320200
24 u_destuffer\/_11_ u_destuffer\/_11_:25 13.576900
25 u_destuffer\/_11_ u_destuffer\/_11_:26 11.090700
26 u_destuffer\/_11_ u_destuffer\/_11_:27 15.278800
27 u_destuffer\/_11_ u_destuffer\/_11_:28 12.145800
28 u_destuffer\/_11_ u_destuffer\/_11_:29 19.197700
29 u_destuffer\/_11_ u_destuffer\/_36_:B 0.000000
30 u_destuffer\/_11_ u_destuffer\/_33_:A2 0.000000
31 u_destuffer\/_11_ u_destuffer\/_30_:A2 0.000000
32 u_destuffer\/_11_ u_destuffer\/_28_:ZN 0.000000
*END

*D_NET u_destuffer\/_12_ 2.663141
*CONN
*P u_destuffer\/_12_ B
*I u_destuffer\/_30_:A3 B
*I u_destuffer\/_29_:ZN B
*CAP
1 u_destuffer\/_12_ 2.649258
2 u_destuffer\/_12_ u_destuffer\/ones[0] 0.013883
*RES
1 u_destuffer\/_12_ u_destuffer\/_12_:2 19.098400
2 u_destuffer\/_12_ u_destuffer\/_12_:3 22.811700
3 u_destuffer\/_12_ u_destuffer\/_12_:4 36.609600
4 u_destuffer\/_12_ u_destuffer\/_12_:5 34.377400
5 u_destuffer\/_12_ u_destuffer\/_12_:6 30.291400
6 u_destuffer\/_12_ u_destuffer\/_12_:7 28.717300
7 u_destuffer\/_12_ u_destuffer\/_12_:8 9.482200
8 u_destuffer\/_12_ u_destuffer\/_12_:9 10.927900
9 u_destuffer\/_12_ u_destuffer\/_30_:A3 0.000000
10 u_destuffer\/_12_ u_destuffer\/_29_:ZN 0.000000
*END

*D_NET u_destuffer\/_13_ 3.763058
*CONN
*P u_destuffer\/_13_ B
*I u_destuffer\/_32_:A2 B
*I u_destuffer\/_31_:ZN B
*CAP
1 u_destuffer\/_13_ 3.703765
2 u_destuffer\/_13_ u_destuffer\/_14_ 0.032689
3 u_destuffer\/_13_ u_destuffer\/ones[0] 0.011658
4 u_destuffer\/_13_ u_destuffer\/ones[1] 0.010318
5 u_destuffer\/_13_ u_sync_detector\/_03_ 0.004628
*RES
1 u_destuffer\/_13_ u_destuffer\/_13_:2 20.075500
2 u_destuffer\/_13_ u_destuffer\/_13_:3 22.280600
3 u_destuffer\/_13_ u_destuffer\/_13_:4 10.930500
4 u_destuffer\/_13_ u_destuffer\/_13_:5 13.943900
5 u_destuffer\/_13_ u_destuffer\/_13_:6 12.817000
6 u_destuffer\/_13_ u_destuffer\/_13_:7 9.427900
7 u_destuffer\/_13_ u_destuffer\/_13_:8 8.445900
8 u_destuffer\/_13_ u_destuffer\/_13_:9 8.961900
9 u_destuffer\/_13_ u_destuffer\/_13_:10 4.864400
10 u_destuffer\/_13_ u_destuffer\/_13_:11 8.142300
11 u_destuffer\/_13_ u_destuffer\/_13_:12 11.793900
12 u_destuffer\/_13_ u_destuffer\/_13_:13 10.197600
13 u_destuffer\/_13_ u_destuffer\/_13_:14 6.308300
14 u_destuffer\/_13_ u_destuffer\/_13_:15 10.295000
15 u_destuffer\/_13_ u_destuffer\/_13_:16 14.728600
16 u_destuffer\/_13_ u_destuffer\/_13_:17 15.880200
17 u_destuffer\/_13_ u_destuffer\/_32_:A2 0.000000
18 u_destuffer\/_13_ u_destuffer\/_31_:ZN 0.000000
*END

*D_NET u_destuffer\/_14_ 3.096795
*CONN
*P u_destuffer\/_14_ B
*I u_destuffer\/_33_:A3 B
*I u_destuffer\/_32_:Z B
*CAP
1 u_destuffer\/_14_ 3.084565
2 u_destuffer\/_14_ u_destuffer\/ones[0] 0.003801
3 u_destuffer\/_14_ u_destuffer\/ones[1] 0.003801
4 u_destuffer\/_14_ u_sync_detector\/_03_ 0.004628
*RES
1 u_destuffer\/_14_ u_destuffer\/_14_:2 28.370800
2 u_destuffer\/_14_ u_destuffer\/_14_:3 30.567000
3 u_destuffer\/_14_ u_destuffer\/_14_:4 22.257500
4 u_destuffer\/_14_ u_destuffer\/_14_:5 19.068400
5 u_destuffer\/_14_ u_destuffer\/_14_:6 28.041100
6 u_destuffer\/_14_ u_destuffer\/_14_:7 19.589500
7 u_destuffer\/_14_ u_destuffer\/_14_:8 18.904700
8 u_destuffer\/_14_ u_destuffer\/_14_:9 27.609800
9 u_destuffer\/_14_ u_destuffer\/_33_:A3 0.000000
10 u_destuffer\/_14_ u_destuffer\/_32_:Z 0.000000
*END

*D_NET u_destuffer\/_15_ 1.736269
*CONN
*P u_destuffer\/_15_ B
*I u_destuffer\/_36_:A1 B
*I u_destuffer\/_34_:ZN B
*CAP
1 u_destuffer\/_15_ 1.727013
2 u_destuffer\/_15_ u_destuffer\/_16_ 0.004628
3 u_destuffer\/_15_ u_destuffer\/ones[2] 0.004628
*RES
1 u_destuffer\/_15_ u_destuffer\/_15_:2 25.041500
2 u_destuffer\/_15_ u_destuffer\/_15_:3 37.446200
3 u_destuffer\/_15_ u_destuffer\/_15_:4 36.589600
4 u_destuffer\/_15_ u_destuffer\/_15_:5 54.104400
5 u_destuffer\/_15_ u_destuffer\/_15_:6 4.041100
6 u_destuffer\/_15_ u_destuffer\/_15_:7 10.558400
7 u_destuffer\/_15_ u_destuffer\/_36_:A1 0.000000
8 u_destuffer\/_15_ u_destuffer\/_34_:ZN 0.000000
*END

*D_NET u_destuffer\/_16_ 2.625527
*CONN
*P u_destuffer\/_16_ B
*I u_destuffer\/_36_:A2 B
*I u_destuffer\/_35_:ZN B
*CAP
1 u_destuffer\/_16_ 2.596273
2 u_destuffer\/_16_ u_destuffer\/ones[0] 0.013883
3 u_destuffer\/_16_ u_destuffer\/ones[1] 0.010743
4 u_destuffer\/_16_ u_destuffer\/ones[2] 0.004628
*RES
1 u_destuffer\/_16_ u_destuffer\/_16_:2 18.683900
2 u_destuffer\/_16_ u_destuffer\/_16_:3 27.917100
3 u_destuffer\/_16_ u_destuffer\/_16_:4 9.450700
4 u_destuffer\/_16_ u_destuffer\/_16_:5 25.864900
5 u_destuffer\/_16_ u_destuffer\/_16_:6 34.358000
6 u_destuffer\/_16_ u_destuffer\/_16_:7 23.973400
7 u_destuffer\/_16_ u_destuffer\/_16_:8 21.689600
8 u_destuffer\/_16_ u_destuffer\/_16_:9 24.177000
9 u_destuffer\/_16_ u_destuffer\/_36_:A2 0.000000
10 u_destuffer\/_16_ u_destuffer\/_35_:ZN 0.000000
*END

*D_NET u_destuffer\/_17_ 5.270689
*CONN
*P u_destuffer\/_17_ B
*I u_destuffer\/_43_:B2 B
*I u_destuffer\/_38_:A2 B
*I u_destuffer\/_37_:ZN B
*CAP
1 u_destuffer\/_17_ 5.260607
2 u_destuffer\/_17_ u_destuffer\/ones[0] 0.010082
*RES
1 u_destuffer\/_17_ u_destuffer\/_17_:2 37.899100
2 u_destuffer\/_17_ u_destuffer\/_17_:3 27.322100
3 u_destuffer\/_17_ u_destuffer\/_17_:4 49.580000
4 u_destuffer\/_17_ u_destuffer\/_17_:5 27.418700
5 u_destuffer\/_17_ u_destuffer\/_17_:6 37.830200
6 u_destuffer\/_17_ u_destuffer\/_17_:7 20.589700
7 u_destuffer\/_17_ u_destuffer\/_17_:8 20.608000
8 u_destuffer\/_17_ u_destuffer\/_17_:9 33.420500
9 u_destuffer\/_17_ u_destuffer\/_17_:10 33.431800
10 u_destuffer\/_17_ u_destuffer\/_17_:11 35.838600
11 u_destuffer\/_17_ u_destuffer\/_17_:12 26.238100
12 u_destuffer\/_17_ u_destuffer\/_17_:13 26.883600
13 u_destuffer\/_17_ u_destuffer\/_17_:14 13.532300
14 u_destuffer\/_17_ u_destuffer\/_17_:15 28.480800
15 u_destuffer\/_17_ u_destuffer\/_17_:16 26.613600
16 u_destuffer\/_17_ u_destuffer\/_17_:17 14.732200
17 u_destuffer\/_17_ u_destuffer\/_43_:B2 0.000000
18 u_destuffer\/_17_ u_destuffer\/_38_:A2 0.000000
19 u_destuffer\/_17_ u_destuffer\/_37_:ZN 0.000000
*END

*D_NET u_destuffer\/_18_ 3.244032
*CONN
*P u_destuffer\/_18_ B
*I u_destuffer\/_43_:A1 B
*I u_destuffer\/_39_:ZN B
*CAP
1 u_destuffer\/_18_ 3.231905
2 u_destuffer\/_18_ u_destuffer\/_20_ 0.007499
3 u_destuffer\/_18_ u_destuffer\/_21_ 0.004628
*RES
1 u_destuffer\/_18_ u_destuffer\/_18_:2 24.622900
2 u_destuffer\/_18_ u_destuffer\/_18_:3 29.654000
3 u_destuffer\/_18_ u_destuffer\/_18_:4 38.228700
4 u_destuffer\/_18_ u_destuffer\/_18_:5 31.295800
5 u_destuffer\/_18_ u_destuffer\/_18_:6 4.132600
6 u_destuffer\/_18_ u_destuffer\/_18_:7 10.166000
7 u_destuffer\/_18_ u_destuffer\/_18_:8 20.594400
8 u_destuffer\/_18_ u_destuffer\/_18_:9 23.032400
9 u_destuffer\/_18_ u_destuffer\/_18_:10 63.223000
10 u_destuffer\/_18_ u_destuffer\/_18_:11 76.698000
11 u_destuffer\/_18_ u_destuffer\/_43_:A1 0.000000
12 u_destuffer\/_18_ u_destuffer\/_39_:ZN 0.000000
*END

*D_NET u_destuffer\/_19_ 3.587860
*CONN
*P u_destuffer\/_19_ B
*I u_destuffer\/_42_:A1 B
*I u_destuffer\/_40_:ZN B
*CAP
1 u_destuffer\/_19_ 3.587860
*RES
1 u_destuffer\/_19_ u_destuffer\/_19_:2 15.255300
2 u_destuffer\/_19_ u_destuffer\/_19_:3 11.877100
3 u_destuffer\/_19_ u_destuffer\/_19_:4 22.501800
4 u_destuffer\/_19_ u_destuffer\/_19_:5 17.119300
5 u_destuffer\/_19_ u_destuffer\/_19_:6 29.330000
6 u_destuffer\/_19_ u_destuffer\/_19_:7 27.946800
7 u_destuffer\/_19_ u_destuffer\/_19_:8 34.448500
8 u_destuffer\/_19_ u_destuffer\/_19_:9 31.255400
9 u_destuffer\/_19_ u_destuffer\/_19_:10 46.793900
10 u_destuffer\/_19_ u_destuffer\/_19_:11 48.168600
11 u_destuffer\/_19_ u_destuffer\/_19_:12 32.452000
12 u_destuffer\/_19_ u_destuffer\/_19_:13 34.461100
13 u_destuffer\/_19_ u_destuffer\/_42_:A1 0.000000
14 u_destuffer\/_19_ u_destuffer\/_40_:ZN 0.000000
*END

*D_NET u_destuffer\/_20_ 4.816848
*CONN
*P u_destuffer\/_20_ B
*I u_destuffer\/_42_:A2 B
*I u_destuffer\/_41_:Z B
*CAP
1 u_destuffer\/_20_ 4.813047
2 u_destuffer\/_20_ u_destuffer\/_21_ 0.003801
*RES
1 u_destuffer\/_20_ u_destuffer\/_20_:2 29.663800
2 u_destuffer\/_20_ u_destuffer\/_20_:3 23.940400
3 u_destuffer\/_20_ u_destuffer\/_20_:4 27.926400
4 u_destuffer\/_20_ u_destuffer\/_20_:5 27.664600
5 u_destuffer\/_20_ u_destuffer\/_20_:6 28.153500
6 u_destuffer\/_20_ u_destuffer\/_20_:7 21.353900
7 u_destuffer\/_20_ u_destuffer\/_20_:8 21.001800
8 u_destuffer\/_20_ u_destuffer\/_20_:9 21.651100
9 u_destuffer\/_20_ u_destuffer\/_20_:10 20.970600
10 u_destuffer\/_20_ u_destuffer\/_20_:11 20.989200
11 u_destuffer\/_20_ u_destuffer\/_20_:12 22.040100
12 u_destuffer\/_20_ u_destuffer\/_20_:13 21.351400
13 u_destuffer\/_20_ u_destuffer\/_20_:14 27.669600
14 u_destuffer\/_20_ u_destuffer\/_20_:15 27.631100
15 u_destuffer\/_20_ u_destuffer\/_20_:16 27.925100
16 u_destuffer\/_20_ u_destuffer\/_20_:17 28.391600
17 u_destuffer\/_20_ u_destuffer\/_42_:A2 0.000000
18 u_destuffer\/_20_ u_destuffer\/_41_:Z 0.000000
*END

*D_NET u_destuffer\/_21_ 5.068157
*CONN
*P u_destuffer\/_21_ B
*I u_destuffer\/_43_:A3 B
*I u_destuffer\/_42_:ZN B
*CAP
1 u_destuffer\/_21_ 5.068157
*RES
1 u_destuffer\/_21_ u_destuffer\/_21_:2 23.321000
2 u_destuffer\/_21_ u_destuffer\/_21_:3 22.023000
3 u_destuffer\/_21_ u_destuffer\/_21_:4 20.550600
4 u_destuffer\/_21_ u_destuffer\/_21_:5 20.818200
5 u_destuffer\/_21_ u_destuffer\/_21_:6 17.341900
6 u_destuffer\/_21_ u_destuffer\/_21_:7 15.707100
7 u_destuffer\/_21_ u_destuffer\/_21_:8 13.494600
8 u_destuffer\/_21_ u_destuffer\/_21_:9 13.894700
9 u_destuffer\/_21_ u_destuffer\/_21_:10 19.198600
10 u_destuffer\/_21_ u_destuffer\/_21_:11 17.023900
11 u_destuffer\/_21_ u_destuffer\/_21_:12 15.075900
12 u_destuffer\/_21_ u_destuffer\/_21_:13 13.523100
13 u_destuffer\/_21_ u_destuffer\/_21_:14 14.983400
14 u_destuffer\/_21_ u_destuffer\/_21_:15 12.242900
15 u_destuffer\/_21_ u_destuffer\/_21_:16 12.850100
16 u_destuffer\/_21_ u_destuffer\/_21_:17 21.531600
17 u_destuffer\/_21_ u_destuffer\/_21_:18 5.134400
18 u_destuffer\/_21_ u_destuffer\/_21_:19 7.757100
19 u_destuffer\/_21_ u_destuffer\/_21_:20 6.815800
20 u_destuffer\/_21_ u_destuffer\/_21_:21 8.758600
21 u_destuffer\/_21_ u_destuffer\/_21_:22 12.160800
22 u_destuffer\/_21_ u_destuffer\/_21_:23 9.863600
23 u_destuffer\/_21_ u_destuffer\/_21_:24 6.044000
24 u_destuffer\/_21_ u_destuffer\/_21_:25 5.447100
25 u_destuffer\/_21_ u_destuffer\/_43_:A3 0.000000
26 u_destuffer\/_21_ u_destuffer\/_42_:ZN 0.000000
*END

*D_NET u_destuffer\/ones\[0\] 13.365842
*CONN
*P u_destuffer\/ones\[0\] B
*I u_destuffer\/_45_:Q B
*I u_destuffer\/_40_:I B
*I u_destuffer\/_37_:A1 B
*I u_destuffer\/_35_:A3 B
*I u_destuffer\/_31_:A2 B
*I u_destuffer\/_29_:A2 B
*I u_destuffer\/_25_:A1 B
*CAP
1 u_destuffer\/ones[0] 13.355925
2 u_destuffer\/ones[0] u_destuffer\/ones[1] 0.009917
*RES
1 u_destuffer\/ones[0] u_destuffer\/ones\[0\]:2 55.376600
2 u_destuffer\/ones[0] u_destuffer\/ones\[0\]:3 53.453800
3 u_destuffer\/ones[0] u_destuffer\/ones\[0\]:4 55.463600
4 u_destuffer\/ones[0] u_destuffer\/ones\[0\]:5 57.448900
5 u_destuffer\/ones[0] u_destuffer\/ones\[0\]:6 51.018300
6 u_destuffer\/ones[0] u_destuffer\/ones\[0\]:7 49.043200
7 u_destuffer\/ones[0] u_destuffer\/ones\[0\]:8 62.889400
8 u_destuffer\/ones[0] u_destuffer\/ones\[0\]:9 62.115200
9 u_destuffer\/ones[0] u_destuffer\/ones\[0\]:10 32.500800
10 u_destuffer\/ones[0] u_destuffer\/ones\[0\]:11 19.685500
11 u_destuffer\/ones[0] u_destuffer\/ones\[0\]:12 21.987100
12 u_destuffer\/ones[0] u_destuffer\/ones\[0\]:13 9.246000
13 u_destuffer\/ones[0] u_destuffer\/ones\[0\]:14 25.925400
14 u_destuffer\/ones[0] u_destuffer\/ones\[0\]:15 24.214600
15 u_destuffer\/ones[0] u_destuffer\/ones\[0\]:16 11.849500
16 u_destuffer\/ones[0] u_destuffer\/ones\[0\]:17 22.627100
17 u_destuffer\/ones[0] u_destuffer\/ones\[0\]:18 72.378400
18 u_destuffer\/ones[0] u_destuffer\/ones\[0\]:19 60.488500
19 u_destuffer\/ones[0] u_destuffer\/ones\[0\]:20 27.731700
20 u_destuffer\/ones[0] u_destuffer\/ones\[0\]:21 57.517700
21 u_destuffer\/ones[0] u_destuffer\/ones\[0\]:22 43.872600
22 u_destuffer\/ones[0] u_destuffer\/ones\[0\]:23 55.404700
23 u_destuffer\/ones[0] u_destuffer\/ones\[0\]:24 66.124200
24 u_destuffer\/ones[0] u_destuffer\/ones\[0\]:25 51.102800
25 u_destuffer\/ones[0] u_destuffer\/ones\[0\]:26 33.378000
26 u_destuffer\/ones[0] u_destuffer\/ones\[0\]:27 51.449700
27 u_destuffer\/ones[0] u_destuffer\/_45_:Q 0.000000
28 u_destuffer\/ones[0] u_destuffer\/_40_:I 0.000000
29 u_destuffer\/ones[0] u_destuffer\/_37_:A1 0.000000
30 u_destuffer\/ones[0] u_destuffer\/_35_:A3 0.000000
31 u_destuffer\/ones[0] u_destuffer\/_31_:A2 0.000000
32 u_destuffer\/ones[0] u_destuffer\/_29_:A2 0.000000
33 u_destuffer\/ones[0] u_destuffer\/_25_:A1 0.000000
*END

*D_NET u_destuffer\/ones\[1\] 10.298874
*CONN
*P u_destuffer\/ones\[1\] B
*I u_destuffer\/_46_:Q B
*I u_destuffer\/_41_:A2 B
*I u_destuffer\/_35_:A2 B
*I u_destuffer\/_32_:A1 B
*I u_destuffer\/_22_:A2 B
*CAP
1 u_destuffer\/ones[1] 10.274758
2 u_destuffer\/ones[1] u_destuffer\/ones[2] 0.019488
3 u_destuffer\/ones[1] u_sync_detector\/_03_ 0.004628
*RES
1 u_destuffer\/ones[1] u_destuffer\/ones\[1\]:2 74.474900
2 u_destuffer\/ones[1] u_destuffer\/ones\[1\]:3 74.913600
3 u_destuffer\/ones[1] u_destuffer\/ones\[1\]:4 67.477600
4 u_destuffer\/ones[1] u_destuffer\/ones\[1\]:5 18.345600
5 u_destuffer\/ones[1] u_destuffer\/ones\[1\]:6 21.813700
6 u_destuffer\/ones[1] u_destuffer\/ones\[1\]:7 15.023900
7 u_destuffer\/ones[1] u_destuffer\/ones\[1\]:8 14.560500
8 u_destuffer\/ones[1] u_destuffer\/ones\[1\]:9 77.277900
9 u_destuffer\/ones[1] u_destuffer\/ones\[1\]:10 70.058500
10 u_destuffer\/ones[1] u_destuffer\/ones\[1\]:11 21.540000
11 u_destuffer\/ones[1] u_destuffer\/ones\[1\]:12 76.625800
12 u_destuffer\/ones[1] u_destuffer\/ones\[1\]:13 16.995200
13 u_destuffer\/ones[1] u_destuffer\/ones\[1\]:14 23.945000
14 u_destuffer\/ones[1] u_destuffer\/ones\[1\]:15 69.390500
15 u_destuffer\/ones[1] u_destuffer\/ones\[1\]:16 24.412900
16 u_destuffer\/ones[1] u_destuffer\/ones\[1\]:17 22.648000
17 u_destuffer\/ones[1] u_destuffer\/ones\[1\]:18 50.599100
18 u_destuffer\/ones[1] u_destuffer\/ones\[1\]:19 16.105000
19 u_destuffer\/ones[1] u_destuffer\/ones\[1\]:20 67.006200
20 u_destuffer\/ones[1] u_destuffer\/ones\[1\]:21 43.428200
21 u_destuffer\/ones[1] u_destuffer\/_46_:Q 0.000000
22 u_destuffer\/ones[1] u_destuffer\/_41_:A2 0.000000
23 u_destuffer\/ones[1] u_destuffer\/_35_:A2 0.000000
24 u_destuffer\/ones[1] u_destuffer\/_32_:A1 0.000000
25 u_destuffer\/ones[1] u_destuffer\/_22_:A2 0.000000
*END

*D_NET u_destuffer\/ones\[2\] 7.489620
*CONN
*P u_destuffer\/ones\[2\] B
*I u_destuffer\/_47_:Q B
*I u_destuffer\/_41_:A1 B
*I u_destuffer\/_34_:I B
*I u_destuffer\/_22_:A1 B
*CAP
1 u_destuffer\/ones[2] 7.489620
*RES
1 u_destuffer\/ones[2] u_destuffer\/ones\[2\]:2 82.228500
2 u_destuffer\/ones[2] u_destuffer\/ones\[2\]:3 69.903400
3 u_destuffer\/ones[2] u_destuffer\/ones\[2\]:4 70.432400
4 u_destuffer\/ones[2] u_destuffer\/ones\[2\]:5 22.151900
5 u_destuffer\/ones[2] u_destuffer\/ones\[2\]:6 19.309900
6 u_destuffer\/ones[2] u_destuffer\/ones\[2\]:7 9.554000
7 u_destuffer\/ones[2] u_destuffer\/ones\[2\]:8 6.439200
8 u_destuffer\/ones[2] u_destuffer\/ones\[2\]:9 15.059200
9 u_destuffer\/ones[2] u_destuffer\/ones\[2\]:10 11.079800
10 u_destuffer\/ones[2] u_destuffer\/ones\[2\]:11 18.776400
11 u_destuffer\/ones[2] u_destuffer\/ones\[2\]:12 17.258400
12 u_destuffer\/ones[2] u_destuffer\/ones\[2\]:13 82.622100
13 u_destuffer\/ones[2] u_destuffer\/ones\[2\]:14 71.046600
14 u_destuffer\/ones[2] u_destuffer\/ones\[2\]:15 81.625800
15 u_destuffer\/ones[2] u_destuffer\/ones\[2\]:16 38.442900
16 u_destuffer\/ones[2] u_destuffer\/ones\[2\]:17 26.994200
17 u_destuffer\/ones[2] u_destuffer\/_47_:Q 0.000000
18 u_destuffer\/ones[2] u_destuffer\/_41_:A1 0.000000
19 u_destuffer\/ones[2] u_destuffer\/_34_:I 0.000000
20 u_destuffer\/ones[2] u_destuffer\/_22_:A1 0.000000
*END

*D_NET u_encoder\/_00_ 2.698897
*CONN
*P u_encoder\/_00_ B
*I u_encoder\/_14_:D B
*I u_encoder\/_12_:ZN B
*CAP
1 u_encoder\/_00_ 2.687494
2 u_encoder\/_00_ u_encoder\/_04_ 0.003801
3 u_encoder\/_00_ u_encoder\/_05_ 0.003801
4 u_encoder\/_00_ u_encoder\/_06_ 0.003801
*RES
1 u_encoder\/_00_ u_encoder\/_00_:2 18.465300
2 u_encoder\/_00_ u_encoder\/_00_:3 22.247200
3 u_encoder\/_00_ u_encoder\/_00_:4 1.091100
4 u_encoder\/_00_ u_encoder\/_00_:5 3.439800
5 u_encoder\/_00_ u_encoder\/_00_:6 9.724000
6 u_encoder\/_00_ u_encoder\/_00_:7 8.157300
7 u_encoder\/_00_ u_encoder\/_00_:8 6.164100
8 u_encoder\/_00_ u_encoder\/_00_:9 6.789500
9 u_encoder\/_00_ u_encoder\/_00_:10 6.905600
10 u_encoder\/_00_ u_encoder\/_00_:11 6.121000
11 u_encoder\/_00_ u_encoder\/_14_:D 0.000000
12 u_encoder\/_00_ u_encoder\/_12_:ZN 0.000000
*END

*D_NET u_encoder\/_01_ 2.348432
*CONN
*P u_encoder\/_01_ B
*I u_encoder\/_15_:D B
*I u_encoder\/_13_:ZN B
*CAP
1 u_encoder\/_01_ 2.327312
2 u_encoder\/_01_ u_encoder\/_03_ 0.004628
3 u_encoder\/_01_ u_encoder\/_05_ 0.016492
*RES
1 u_encoder\/_01_ u_encoder\/_01_:2 13.512200
2 u_encoder\/_01_ u_encoder\/_01_:3 21.643100
3 u_encoder\/_01_ u_encoder\/_01_:4 21.449400
4 u_encoder\/_01_ u_encoder\/_01_:5 12.996600
5 u_encoder\/_01_ u_encoder\/_01_:6 7.753000
6 u_encoder\/_01_ u_encoder\/_01_:7 10.352000
7 u_encoder\/_01_ u_encoder\/_15_:D 0.000000
8 u_encoder\/_01_ u_encoder\/_13_:ZN 0.000000
*END

*D_NET u_encoder\/_02_ 4.609004
*CONN
*P u_encoder\/_02_ B
*I u_encoder\/_12_:A2 B
*I u_encoder\/_09_:Z B
*CAP
1 u_encoder\/_02_ 4.600575
2 u_encoder\/_02_ u_encoder\/_05_ 0.003801
3 u_encoder\/_02_ u_stuffer\/_05_ 0.004628
*RES
1 u_encoder\/_02_ u_encoder\/_02_:2 21.933200
2 u_encoder\/_02_ u_encoder\/_02_:3 22.593200
3 u_encoder\/_02_ u_encoder\/_02_:4 25.217800
4 u_encoder\/_02_ u_encoder\/_02_:5 25.813100
5 u_encoder\/_02_ u_encoder\/_02_:6 13.943600
6 u_encoder\/_02_ u_encoder\/_02_:7 13.619200
7 u_encoder\/_02_ u_encoder\/_02_:8 13.413500
8 u_encoder\/_02_ u_encoder\/_02_:9 13.332200
9 u_encoder\/_02_ u_encoder\/_02_:10 10.881800
10 u_encoder\/_02_ u_encoder\/_02_:11 10.485300
11 u_encoder\/_02_ u_encoder\/_02_:12 10.216700
12 u_encoder\/_02_ u_encoder\/_02_:13 10.111000
13 u_encoder\/_02_ u_encoder\/_12_:A2 0.000000
14 u_encoder\/_02_ u_encoder\/_09_:Z 0.000000
*END

*D_NET u_encoder\/_03_ 1.973238
*CONN
*P u_encoder\/_03_ B
*I u_encoder\/_13_:A3 B
*I u_encoder\/_11_:A2 B
*I u_encoder\/_10_:ZN B
*CAP
1 u_encoder\/_03_ 1.973238
*RES
1 u_encoder\/_03_ u_encoder\/_03_:2 13.726300
2 u_encoder\/_03_ u_encoder\/_03_:3 56.714400
3 u_encoder\/_03_ u_encoder\/_03_:4 38.399300
4 u_encoder\/_03_ u_encoder\/_03_:5 38.327800
5 u_encoder\/_03_ u_encoder\/_03_:6 19.456900
6 u_encoder\/_03_ u_encoder\/_03_:7 14.063700
7 u_encoder\/_03_ u_encoder\/_13_:A3 0.000000
8 u_encoder\/_03_ u_encoder\/_11_:A2 0.000000
9 u_encoder\/_03_ u_encoder\/_10_:ZN 0.000000
*END

*D_NET u_encoder\/_04_ 3.509383
*CONN
*P u_encoder\/_04_ B
*I u_encoder\/_12_:A3 B
*I u_encoder\/_11_:ZN B
*CAP
1 u_encoder\/_04_ 3.499173
2 u_encoder\/_04_ u_encoder\/_05_ 0.010210
*RES
1 u_encoder\/_04_ u_encoder\/_04_:2 22.742700
2 u_encoder\/_04_ u_encoder\/_04_:3 22.595500
3 u_encoder\/_04_ u_encoder\/_04_:4 30.732500
4 u_encoder\/_04_ u_encoder\/_04_:5 30.716500
5 u_encoder\/_04_ u_encoder\/_04_:6 28.949000
6 u_encoder\/_04_ u_encoder\/_04_:7 36.967200
7 u_encoder\/_04_ u_encoder\/_04_:8 36.903600
8 u_encoder\/_04_ u_encoder\/_12_:A3 0.000000
9 u_encoder\/_04_ u_encoder\/_11_:ZN 0.000000
*END

*D_NET u_encoder\/_05_ 6.022173
*CONN
*P u_encoder\/_05_ B
*I u_encoder\/_13_:A1 B
*I u_encoder\/_09_:A2 B
*I u_encoder\/_08_:A1 B
*I u_encoder\/_07_:ZN B
*CAP
1 u_encoder\/_05_ 6.018372
2 u_encoder\/_05_ u_encoder\/_06_ 0.003801
*RES
1 u_encoder\/_05_ u_encoder\/_05_:2 40.923700
2 u_encoder\/_05_ u_encoder\/_05_:3 39.635700
3 u_encoder\/_05_ u_encoder\/_05_:4 4.684500
4 u_encoder\/_05_ u_encoder\/_05_:5 9.588200
5 u_encoder\/_05_ u_encoder\/_05_:6 25.716600
6 u_encoder\/_05_ u_encoder\/_05_:7 33.564800
7 u_encoder\/_05_ u_encoder\/_05_:8 31.981800
8 u_encoder\/_05_ u_encoder\/_05_:9 17.861600
9 u_encoder\/_05_ u_encoder\/_05_:10 48.449000
10 u_encoder\/_05_ u_encoder\/_05_:11 49.085700
11 u_encoder\/_05_ u_encoder\/_05_:12 41.313300
12 u_encoder\/_05_ u_encoder\/_05_:13 42.067600
13 u_encoder\/_05_ u_encoder\/_13_:A1 0.000000
14 u_encoder\/_05_ u_encoder\/_09_:A2 0.000000
15 u_encoder\/_05_ u_encoder\/_08_:A1 0.000000
16 u_encoder\/_05_ u_encoder\/_07_:ZN 0.000000
*END

*D_NET u_encoder\/_06_ 2.488095
*CONN
*P u_encoder\/_06_ B
*I u_encoder\/_12_:A1 B
*I u_encoder\/_08_:ZN B
*CAP
1 u_encoder\/_06_ 2.488095
*RES
1 u_encoder\/_06_ u_encoder\/_06_:2 16.760600
2 u_encoder\/_06_ u_encoder\/_06_:3 16.836000
3 u_encoder\/_06_ u_encoder\/_06_:4 24.638300
4 u_encoder\/_06_ u_encoder\/_06_:5 24.685100
5 u_encoder\/_06_ u_encoder\/_06_:6 24.451500
6 u_encoder\/_06_ u_encoder\/_06_:7 24.968300
7 u_encoder\/_06_ u_encoder\/_06_:8 16.974400
8 u_encoder\/_06_ u_encoder\/_06_:9 16.766700
9 u_encoder\/_06_ u_encoder\/_12_:A1 0.000000
10 u_encoder\/_06_ u_encoder\/_08_:ZN 0.000000
*END

*D_NET u_eop_detector\/_00_ 3.190681
*CONN
*P u_eop_detector\/_00_ B
*I u_eop_detector\/_54_:D B
*I u_eop_detector\/_33_:ZN B
*CAP
1 u_eop_detector\/_00_ 3.153903
2 u_eop_detector\/_00_ u_eop_detector\/_09_ 0.004628
3 u_eop_detector\/_00_ u_eop_detector\/_10_ 0.010200
4 u_eop_detector\/_00_ u_eop_detector\/_12_ 0.004628
5 u_eop_detector\/_00_ u_eop_detector\/_13_ 0.009255
6 u_eop_detector\/_00_ u_eop_detector\/_14_ 0.004266
7 u_eop_detector\/_00_ u_eop_detector\/_15_ 0.003801
*RES
1 u_eop_detector\/_00_ u_eop_detector\/_00_:2 12.578200
2 u_eop_detector\/_00_ u_eop_detector\/_00_:3 21.309400
3 u_eop_detector\/_00_ u_eop_detector\/_00_:4 24.211100
4 u_eop_detector\/_00_ u_eop_detector\/_00_:5 16.463200
5 u_eop_detector\/_00_ u_eop_detector\/_00_:6 16.549700
6 u_eop_detector\/_00_ u_eop_detector\/_54_:D 0.000000
7 u_eop_detector\/_00_ u_eop_detector\/_33_:ZN 0.000000
*END

*D_NET u_eop_detector\/_01_ 2.248447
*CONN
*P u_eop_detector\/_01_ B
*I u_eop_detector\/_58_:D B
*I u_eop_detector\/_37_:ZN B
*CAP
1 u_eop_detector\/_01_ 2.244646
2 u_eop_detector\/_01_ u_eop_detector\/_16_ 0.003801
*RES
1 u_eop_detector\/_01_ u_eop_detector\/_01_:2 18.324500
2 u_eop_detector\/_01_ u_eop_detector\/_01_:3 21.909600
3 u_eop_detector\/_01_ u_eop_detector\/_01_:4 9.604300
4 u_eop_detector\/_01_ u_eop_detector\/_01_:5 7.651300
5 u_eop_detector\/_01_ u_eop_detector\/_01_:6 6.820300
6 u_eop_detector\/_01_ u_eop_detector\/_01_:7 6.726300
7 u_eop_detector\/_01_ u_eop_detector\/_01_:8 12.097400
8 u_eop_detector\/_01_ u_eop_detector\/_01_:9 3.841200
9 u_eop_detector\/_01_ u_eop_detector\/_58_:D 0.000000
10 u_eop_detector\/_01_ u_eop_detector\/_37_:ZN 0.000000
*END

*D_NET u_eop_detector\/_02_ 1.508485
*CONN
*P u_eop_detector\/_02_ B
*I u_eop_detector\/_57_:D B
*I u_eop_detector\/_40_:ZN B
*CAP
1 u_eop_detector\/_02_ 1.499785
2 u_eop_detector\/_02_ u_eop_detector\/_14_ 0.003801
3 u_eop_detector\/_02_ u_eop_detector\/_15_ 0.004899
*RES
1 u_eop_detector\/_02_ u_eop_detector\/_02_:2 21.549500
2 u_eop_detector\/_02_ u_eop_detector\/_02_:3 12.952500
3 u_eop_detector\/_02_ u_eop_detector\/_02_:4 11.825100
4 u_eop_detector\/_02_ u_eop_detector\/_02_:5 14.506800
5 u_eop_detector\/_02_ u_eop_detector\/_02_:6 1.298600
6 u_eop_detector\/_02_ u_eop_detector\/_02_:7 6.371500
7 u_eop_detector\/_02_ u_eop_detector\/_02_:8 15.118800
8 u_eop_detector\/_02_ u_eop_detector\/_57_:D 0.000000
9 u_eop_detector\/_02_ u_eop_detector\/_40_:ZN 0.000000
*END

*D_NET u_eop_detector\/_03_ 2.170788
*CONN
*P u_eop_detector\/_03_ B
*I u_eop_detector\/_56_:D B
*I u_eop_detector\/_44_:ZN B
*CAP
1 u_eop_detector\/_03_ 2.166160
2 u_eop_detector\/_03_ u_eop_detector\/_17_ 0.004628
*RES
1 u_eop_detector\/_03_ u_eop_detector\/_03_:2 16.495200
2 u_eop_detector\/_03_ u_eop_detector\/_03_:3 18.406200
3 u_eop_detector\/_03_ u_eop_detector\/_03_:4 23.740900
4 u_eop_detector\/_03_ u_eop_detector\/_03_:5 7.374600
5 u_eop_detector\/_03_ u_eop_detector\/_03_:6 11.430400
6 u_eop_detector\/_03_ u_eop_detector\/_03_:7 8.990500
7 u_eop_detector\/_03_ u_eop_detector\/_56_:D 0.000000
8 u_eop_detector\/_03_ u_eop_detector\/_44_:ZN 0.000000
*END

*D_NET u_eop_detector\/_04_ 1.396351
*CONN
*P u_eop_detector\/_04_ B
*I u_eop_detector\/_60_:D B
*I u_eop_detector\/_47_:ZN B
*CAP
1 u_eop_detector\/_04_ 1.396351
*RES
1 u_eop_detector\/_04_ u_eop_detector\/_04_:2 22.695800
2 u_eop_detector\/_04_ u_eop_detector\/_04_:3 15.114700
3 u_eop_detector\/_04_ u_eop_detector\/_04_:4 4.948100
4 u_eop_detector\/_04_ u_eop_detector\/_04_:5 11.235000
5 u_eop_detector\/_04_ u_eop_detector\/_04_:6 14.965000
6 u_eop_detector\/_04_ u_eop_detector\/_04_:7 14.063200
7 u_eop_detector\/_04_ u_eop_detector\/_60_:D 0.000000
8 u_eop_detector\/_04_ u_eop_detector\/_47_:ZN 0.000000
*END

*D_NET u_eop_detector\/_05_ 1.444908
*CONN
*P u_eop_detector\/_05_ B
*I u_eop_detector\/_59_:D B
*I u_eop_detector\/_50_:ZN B
*CAP
1 u_eop_detector\/_05_ 1.429160
2 u_eop_detector\/_05_ u_eop_detector\/_24_ 0.003801
3 u_eop_detector\/_05_ u_eop_detector\/se0_count[2] 0.011947
*RES
1 u_eop_detector\/_05_ u_eop_detector\/_05_:2 25.326600
2 u_eop_detector\/_05_ u_eop_detector\/_05_:3 24.688600
3 u_eop_detector\/_05_ u_eop_detector\/_05_:4 12.544200
4 u_eop_detector\/_05_ u_eop_detector\/_05_:5 9.650100
5 u_eop_detector\/_05_ u_eop_detector\/_05_:6 6.926300
6 u_eop_detector\/_05_ u_eop_detector\/_05_:7 3.843700
7 u_eop_detector\/_05_ u_eop_detector\/_59_:D 0.000000
8 u_eop_detector\/_05_ u_eop_detector\/_50_:ZN 0.000000
*END

*D_NET u_eop_detector\/_06_ 1.493901
*CONN
*P u_eop_detector\/_06_ B
*I u_eop_detector\/_61_:D B
*I u_eop_detector\/_51_:ZN B
*CAP
1 u_eop_detector\/_06_ 1.483248
2 u_eop_detector\/_06_ u_eop_detector\/_17_ 0.006025
3 u_eop_detector\/_06_ u_eop_detector\/se0_count[5] 0.004628
*RES
1 u_eop_detector\/_06_ u_eop_detector\/_06_:2 5.116500
2 u_eop_detector\/_06_ u_eop_detector\/_06_:3 16.115400
3 u_eop_detector\/_06_ u_eop_detector\/_06_:4 25.069600
4 u_eop_detector\/_06_ u_eop_detector\/_06_:5 19.688000
5 u_eop_detector\/_06_ u_eop_detector\/_06_:6 17.356500
6 u_eop_detector\/_06_ u_eop_detector\/_61_:D 0.000000
7 u_eop_detector\/_06_ u_eop_detector\/_51_:ZN 0.000000
*END

*D_NET u_eop_detector\/_07_ 1.826947
*CONN
*P u_eop_detector\/_07_ B
*I u_eop_detector\/_55_:D B
*I u_eop_detector\/_53_:Z B
*CAP
1 u_eop_detector\/_07_ 1.783503
2 u_eop_detector\/_07_ u_eop_detector\/_09_ 0.004628
3 u_eop_detector\/_07_ u_eop_detector\/_10_ 0.038816
*RES
1 u_eop_detector\/_07_ u_eop_detector\/_07_:2 25.103600
2 u_eop_detector\/_07_ u_eop_detector\/_07_:3 17.198200
3 u_eop_detector\/_07_ u_eop_detector\/_07_:4 23.986100
4 u_eop_detector\/_07_ u_eop_detector\/_07_:5 18.315700
5 u_eop_detector\/_07_ u_eop_detector\/_55_:D 0.000000
6 u_eop_detector\/_07_ u_eop_detector\/_53_:Z 0.000000
*END

*D_NET u_eop_detector\/_08_ 4.041987
*CONN
*P u_eop_detector\/_08_ B
*I u_eop_detector\/_28_:A2 B
*I u_eop_detector\/_27_:ZN B
*CAP
1 u_eop_detector\/_08_ 4.041987
*RES
1 u_eop_detector\/_08_ u_eop_detector\/_08_:2 17.658200
2 u_eop_detector\/_08_ u_eop_detector\/_08_:3 22.423800
3 u_eop_detector\/_08_ u_eop_detector\/_08_:4 25.078800
4 u_eop_detector\/_08_ u_eop_detector\/_08_:5 14.921900
5 u_eop_detector\/_08_ u_eop_detector\/_08_:6 14.947300
6 u_eop_detector\/_08_ u_eop_detector\/_28_:A2 0.000000
7 u_eop_detector\/_08_ u_eop_detector\/_27_:ZN 0.000000
*END

*D_NET u_eop_detector\/_09_ 14.009677
*CONN
*P u_eop_detector\/_09_ B
*I u_eop_detector\/_52_:A4 B
*I u_eop_detector\/_51_:A2 B
*I u_eop_detector\/_50_:A1 B
*I u_eop_detector\/_47_:B B
*I u_eop_detector\/_44_:A1 B
*I u_eop_detector\/_40_:C B
*I u_eop_detector\/_37_:A1 B
*I u_eop_detector\/_33_:A1 B
*I u_eop_detector\/_28_:ZN B
*CAP
1 u_eop_detector\/_09_ 13.928527
2 u_eop_detector\/_09_ u_eop_detector\/_10_ 0.004628
3 u_eop_detector\/_09_ u_eop_detector\/_11_ 0.004628
4 u_eop_detector\/_09_ u_eop_detector\/_12_ 0.004628
5 u_eop_detector\/_09_ u_eop_detector\/_13_ 0.000826
6 u_eop_detector\/_09_ u_eop_detector\/_14_ 0.004628
7 u_eop_detector\/_09_ u_eop_detector\/_15_ 0.009255
8 u_eop_detector\/_09_ u_eop_detector\/_16_ 0.001653
9 u_eop_detector\/_09_ u_eop_detector\/_18_ 0.004628
10 u_eop_detector\/_09_ u_eop_detector\/se0_count[2] 0.013883
11 u_eop_detector\/_09_ u_eop_detector\/se0_count[3] 0.009255
12 u_eop_detector\/_09_ u_eop_detector\/se0_count[4] 0.013883
13 u_eop_detector\/_09_ u_eop_detector\/se0_count[5] 0.009255
*RES
1 u_eop_detector\/_09_ u_eop_detector\/_09_:2 61.145700
2 u_eop_detector\/_09_ u_eop_detector\/_09_:3 62.894100
3 u_eop_detector\/_09_ u_eop_detector\/_09_:4 57.576400
4 u_eop_detector\/_09_ u_eop_detector\/_09_:5 9.270200
5 u_eop_detector\/_09_ u_eop_detector\/_09_:6 49.657400
6 u_eop_detector\/_09_ u_eop_detector\/_09_:7 21.367900
7 u_eop_detector\/_09_ u_eop_detector\/_09_:8 11.372500
8 u_eop_detector\/_09_ u_eop_detector\/_09_:9 31.523100
9 u_eop_detector\/_09_ u_eop_detector\/_09_:10 28.201000
10 u_eop_detector\/_09_ u_eop_detector\/_09_:11 42.212100
11 u_eop_detector\/_09_ u_eop_detector\/_09_:12 28.456600
12 u_eop_detector\/_09_ u_eop_detector\/_09_:13 59.350300
13 u_eop_detector\/_09_ u_eop_detector\/_09_:14 47.938600
14 u_eop_detector\/_09_ u_eop_detector\/_09_:15 36.208100
15 u_eop_detector\/_09_ u_eop_detector\/_09_:16 36.894100
16 u_eop_detector\/_09_ u_eop_detector\/_09_:17 41.788900
17 u_eop_detector\/_09_ u_eop_detector\/_09_:18 32.013400
18 u_eop_detector\/_09_ u_eop_detector\/_09_:19 25.857500
19 u_eop_detector\/_09_ u_eop_detector\/_09_:20 61.988400
20 u_eop_detector\/_09_ u_eop_detector\/_09_:21 64.602000
21 u_eop_detector\/_09_ u_eop_detector\/_09_:22 66.026500
22 u_eop_detector\/_09_ u_eop_detector\/_52_:A4 0.000000
23 u_eop_detector\/_09_ u_eop_detector\/_51_:A2 0.000000
24 u_eop_detector\/_09_ u_eop_detector\/_50_:A1 0.000000
25 u_eop_detector\/_09_ u_eop_detector\/_47_:B 0.000000
26 u_eop_detector\/_09_ u_eop_detector\/_44_:A1 0.000000
27 u_eop_detector\/_09_ u_eop_detector\/_40_:C 0.000000
28 u_eop_detector\/_09_ u_eop_detector\/_37_:A1 0.000000
29 u_eop_detector\/_09_ u_eop_detector\/_33_:A1 0.000000
30 u_eop_detector\/_09_ u_eop_detector\/_28_:ZN 0.000000
*END

*D_NET u_eop_detector\/_10_ 8.376942
*CONN
*P u_eop_detector\/_10_ B
*I u_eop_detector\/_42_:A2 B
*I u_eop_detector\/_41_:A2 B
*I u_eop_detector\/_35_:A4 B
*I u_eop_detector\/_32_:A1 B
*I u_eop_detector\/_29_:Z B
*CAP
1 u_eop_detector\/_10_ 8.324451
2 u_eop_detector\/_10_ u_eop_detector\/_12_ 0.004628
3 u_eop_detector\/_10_ u_eop_detector\/_13_ 0.019057
4 u_eop_detector\/_10_ u_eop_detector\/_14_ 0.004628
5 u_eop_detector\/_10_ u_eop_detector\/_15_ 0.019550
6 u_eop_detector\/_10_ u_eop_detector\/_18_ 0.004628
*RES
1 u_eop_detector\/_10_ u_eop_detector\/_10_:2 27.182800
2 u_eop_detector\/_10_ u_eop_detector\/_10_:3 21.725400
3 u_eop_detector\/_10_ u_eop_detector\/_10_:4 9.715800
4 u_eop_detector\/_10_ u_eop_detector\/_10_:5 19.008200
5 u_eop_detector\/_10_ u_eop_detector\/_10_:6 24.730800
6 u_eop_detector\/_10_ u_eop_detector\/_10_:7 22.698300
7 u_eop_detector\/_10_ u_eop_detector\/_10_:8 15.297700
8 u_eop_detector\/_10_ u_eop_detector\/_10_:9 11.731100
9 u_eop_detector\/_10_ u_eop_detector\/_10_:10 29.043400
10 u_eop_detector\/_10_ u_eop_detector\/_10_:11 39.883300
11 u_eop_detector\/_10_ u_eop_detector\/_10_:12 54.200200
12 u_eop_detector\/_10_ u_eop_detector\/_10_:13 46.954400
13 u_eop_detector\/_10_ u_eop_detector\/_10_:14 62.985100
14 u_eop_detector\/_10_ u_eop_detector\/_10_:15 41.089400
15 u_eop_detector\/_10_ u_eop_detector\/_10_:16 17.904800
16 u_eop_detector\/_10_ u_eop_detector\/_10_:17 21.518000
17 u_eop_detector\/_10_ u_eop_detector\/_10_:18 25.366700
18 u_eop_detector\/_10_ u_eop_detector\/_10_:19 33.507200
19 u_eop_detector\/_10_ u_eop_detector\/_10_:20 29.383200
20 u_eop_detector\/_10_ u_eop_detector\/_10_:21 21.947800
21 u_eop_detector\/_10_ u_eop_detector\/_10_:22 25.991500
22 u_eop_detector\/_10_ u_eop_detector\/_10_:23 30.035500
23 u_eop_detector\/_10_ u_eop_detector\/_42_:A2 0.000000
24 u_eop_detector\/_10_ u_eop_detector\/_41_:A2 0.000000
25 u_eop_detector\/_10_ u_eop_detector\/_35_:A4 0.000000
26 u_eop_detector\/_10_ u_eop_detector\/_32_:A1 0.000000
27 u_eop_detector\/_10_ u_eop_detector\/_29_:Z 0.000000
*END

*D_NET u_eop_detector\/_11_ 5.177022
*CONN
*P u_eop_detector\/_11_ B
*I u_eop_detector\/_35_:A2 B
*I u_eop_detector\/_31_:A2 B
*I u_eop_detector\/_30_:ZN B
*CAP
1 u_eop_detector\/_11_ 5.143866
2 u_eop_detector\/_11_ u_eop_detector\/_12_ 0.007603
3 u_eop_detector\/_11_ u_eop_detector\/_15_ 0.006216
4 u_eop_detector\/_11_ u_eop_detector\/_19_ 0.004628
5 u_eop_detector\/_11_ u_eop_detector\/se0_count[0] 0.005454
6 u_eop_detector\/_11_ u_eop_detector\/se0_count[1] 0.009255
*RES
1 u_eop_detector\/_11_ u_eop_detector\/_11_:2 51.464400
2 u_eop_detector\/_11_ u_eop_detector\/_11_:3 35.290200
3 u_eop_detector\/_11_ u_eop_detector\/_11_:4 51.395600
4 u_eop_detector\/_11_ u_eop_detector\/_11_:5 38.534100
5 u_eop_detector\/_11_ u_eop_detector\/_11_:6 10.733700
6 u_eop_detector\/_11_ u_eop_detector\/_11_:7 10.761500
7 u_eop_detector\/_11_ u_eop_detector\/_11_:8 38.883400
8 u_eop_detector\/_11_ u_eop_detector\/_11_:9 21.810400
9 u_eop_detector\/_11_ u_eop_detector\/_11_:10 35.322800
10 u_eop_detector\/_11_ u_eop_detector\/_11_:11 56.992000
11 u_eop_detector\/_11_ u_eop_detector\/_11_:12 76.638800
12 u_eop_detector\/_11_ u_eop_detector\/_11_:13 41.235000
13 u_eop_detector\/_11_ u_eop_detector\/_35_:A2 0.000000
14 u_eop_detector\/_11_ u_eop_detector\/_31_:A2 0.000000
15 u_eop_detector\/_11_ u_eop_detector\/_30_:ZN 0.000000
*END

*D_NET u_eop_detector\/_12_ 4.127780
*CONN
*P u_eop_detector\/_12_ B
*I u_eop_detector\/_53_:A1 B
*I u_eop_detector\/_32_:A2 B
*I u_eop_detector\/_31_:ZN B
*CAP
1 u_eop_detector\/_12_ 4.101683
2 u_eop_detector\/_12_ u_eop_detector\/_15_ 0.007603
3 u_eop_detector\/_12_ u_eop_detector\/_19_ 0.000065
4 u_eop_detector\/_12_ u_eop_detector\/_26_ 0.004628
5 u_eop_detector\/_12_ u_eop_detector\/se0_count[1] 0.000992
6 u_eop_detector\/_12_ u_eop_detector\/se0_count[5] 0.012809
*RES
1 u_eop_detector\/_12_ u_eop_detector\/_12_:2 35.577300
2 u_eop_detector\/_12_ u_eop_detector\/_12_:3 31.805800
3 u_eop_detector\/_12_ u_eop_detector\/_12_:4 21.716900
4 u_eop_detector\/_12_ u_eop_detector\/_12_:5 19.035800
5 u_eop_detector\/_12_ u_eop_detector\/_12_:6 26.234800
6 u_eop_detector\/_12_ u_eop_detector\/_12_:7 12.081000
7 u_eop_detector\/_12_ u_eop_detector\/_12_:8 22.013700
8 u_eop_detector\/_12_ u_eop_detector\/_12_:9 24.029300
9 u_eop_detector\/_12_ u_eop_detector\/_53_:A1 0.000000
10 u_eop_detector\/_12_ u_eop_detector\/_32_:A2 0.000000
11 u_eop_detector\/_12_ u_eop_detector\/_31_:ZN 0.000000
*END

*D_NET u_eop_detector\/_13_ 2.073434
*CONN
*P u_eop_detector\/_13_ B
*I u_eop_detector\/_33_:A2 B
*I u_eop_detector\/_32_:ZN B
*CAP
1 u_eop_detector\/_13_ 2.065832
2 u_eop_detector\/_13_ u_eop_detector\/_14_ 0.003801
3 u_eop_detector\/_13_ u_eop_detector\/_15_ 0.003801
*RES
1 u_eop_detector\/_13_ u_eop_detector\/_13_:2 25.548100
2 u_eop_detector\/_13_ u_eop_detector\/_13_:3 17.095900
3 u_eop_detector\/_13_ u_eop_detector\/_13_:4 6.186300
4 u_eop_detector\/_13_ u_eop_detector\/_13_:5 8.579100
5 u_eop_detector\/_13_ u_eop_detector\/_13_:6 14.782600
6 u_eop_detector\/_13_ u_eop_detector\/_13_:7 14.802800
7 u_eop_detector\/_13_ u_eop_detector\/_33_:A2 0.000000
8 u_eop_detector\/_13_ u_eop_detector\/_32_:ZN 0.000000
*END

*D_NET u_eop_detector\/_14_ 6.036545
*CONN
*P u_eop_detector\/_14_ B
*I u_eop_detector\/_40_:A1 B
*I u_eop_detector\/_35_:A3 B
*I u_eop_detector\/_34_:ZN B
*CAP
1 u_eop_detector\/_14_ 6.023306
2 u_eop_detector\/_14_ u_eop_detector\/_15_ 0.008611
3 u_eop_detector\/_14_ u_eop_detector\/_18_ 0.004628
*RES
1 u_eop_detector\/_14_ u_eop_detector\/_14_:2 21.735000
2 u_eop_detector\/_14_ u_eop_detector\/_14_:3 25.982200
3 u_eop_detector\/_14_ u_eop_detector\/_14_:4 22.436900
4 u_eop_detector\/_14_ u_eop_detector\/_14_:5 29.859500
5 u_eop_detector\/_14_ u_eop_detector\/_14_:6 37.194800
6 u_eop_detector\/_14_ u_eop_detector\/_14_:7 34.810900
7 u_eop_detector\/_14_ u_eop_detector\/_14_:8 34.342200
8 u_eop_detector\/_14_ u_eop_detector\/_14_:9 39.773200
9 u_eop_detector\/_14_ u_eop_detector\/_14_:10 29.440800
10 u_eop_detector\/_14_ u_eop_detector\/_14_:11 40.928900
11 u_eop_detector\/_14_ u_eop_detector\/_14_:12 71.942400
12 u_eop_detector\/_14_ u_eop_detector\/_14_:13 83.160800
13 u_eop_detector\/_14_ u_eop_detector\/_40_:A1 0.000000
14 u_eop_detector\/_14_ u_eop_detector\/_35_:A3 0.000000
15 u_eop_detector\/_14_ u_eop_detector\/_34_:ZN 0.000000
*END

*D_NET u_eop_detector\/_15_ 13.029080
*CONN
*P u_eop_detector\/_15_ B
*I u_eop_detector\/_49_:A2 B
*I u_eop_detector\/_48_:A3 B
*I u_eop_detector\/_46_:A3 B
*I u_eop_detector\/_40_:B B
*I u_eop_detector\/_36_:A2 B
*I u_eop_detector\/_35_:ZN B
*CAP
1 u_eop_detector\/_15_ 12.949446
2 u_eop_detector\/_15_ u_eop_detector\/_16_ 0.012366
3 u_eop_detector\/_15_ u_eop_detector\/_18_ 0.004628
4 u_eop_detector\/_15_ u_eop_detector\/_22_ 0.004628
5 u_eop_detector\/_15_ u_eop_detector\/_23_ 0.004628
6 u_eop_detector\/_15_ u_eop_detector\/_24_ 0.004628
7 u_eop_detector\/_15_ u_eop_detector\/_25_ 0.015536
8 u_eop_detector\/_15_ u_eop_detector\/se0_count[2] 0.020164
9 u_eop_detector\/_15_ u_eop_detector\/se0_count[3] 0.009255
10 u_eop_detector\/_15_ u_eop_detector\/se0_count[5] 0.003801
*RES
1 u_eop_detector\/_15_ u_eop_detector\/_15_:2 30.413100
2 u_eop_detector\/_15_ u_eop_detector\/_15_:3 27.537900
3 u_eop_detector\/_15_ u_eop_detector\/_15_:4 23.660200
4 u_eop_detector\/_15_ u_eop_detector\/_15_:5 30.809000
5 u_eop_detector\/_15_ u_eop_detector\/_15_:6 27.255700
6 u_eop_detector\/_15_ u_eop_detector\/_15_:7 31.842900
7 u_eop_detector\/_15_ u_eop_detector\/_15_:8 25.868000
8 u_eop_detector\/_15_ u_eop_detector\/_15_:9 11.596300
9 u_eop_detector\/_15_ u_eop_detector\/_15_:10 14.692500
10 u_eop_detector\/_15_ u_eop_detector\/_15_:11 36.434100
11 u_eop_detector\/_15_ u_eop_detector\/_15_:12 33.638800
12 u_eop_detector\/_15_ u_eop_detector\/_15_:13 24.501400
13 u_eop_detector\/_15_ u_eop_detector\/_15_:14 18.459700
14 u_eop_detector\/_15_ u_eop_detector\/_15_:15 15.800900
15 u_eop_detector\/_15_ u_eop_detector\/_15_:16 21.237500
16 u_eop_detector\/_15_ u_eop_detector\/_15_:17 22.659700
17 u_eop_detector\/_15_ u_eop_detector\/_15_:18 13.332500
18 u_eop_detector\/_15_ u_eop_detector\/_15_:19 20.008100
19 u_eop_detector\/_15_ u_eop_detector\/_15_:20 12.673100
20 u_eop_detector\/_15_ u_eop_detector\/_15_:21 18.514600
21 u_eop_detector\/_15_ u_eop_detector\/_15_:22 14.105400
22 u_eop_detector\/_15_ u_eop_detector\/_15_:23 9.745000
23 u_eop_detector\/_15_ u_eop_detector\/_15_:24 11.181300
24 u_eop_detector\/_15_ u_eop_detector\/_15_:25 8.827900
25 u_eop_detector\/_15_ u_eop_detector\/_15_:26 12.210400
26 u_eop_detector\/_15_ u_eop_detector\/_15_:27 9.173600
27 u_eop_detector\/_15_ u_eop_detector\/_15_:28 17.115000
28 u_eop_detector\/_15_ u_eop_detector\/_15_:29 19.839400
29 u_eop_detector\/_15_ u_eop_detector\/_15_:30 14.540300
30 u_eop_detector\/_15_ u_eop_detector\/_15_:31 8.867600
31 u_eop_detector\/_15_ u_eop_detector\/_15_:32 10.402600
32 u_eop_detector\/_15_ u_eop_detector\/_15_:33 8.746600
33 u_eop_detector\/_15_ u_eop_detector\/_49_:A2 0.000000
34 u_eop_detector\/_15_ u_eop_detector\/_48_:A3 0.000000
35 u_eop_detector\/_15_ u_eop_detector\/_46_:A3 0.000000
36 u_eop_detector\/_15_ u_eop_detector\/_40_:B 0.000000
37 u_eop_detector\/_15_ u_eop_detector\/_36_:A2 0.000000
38 u_eop_detector\/_15_ u_eop_detector\/_35_:ZN 0.000000
*END

*D_NET u_eop_detector\/_16_ 2.946624
*CONN
*P u_eop_detector\/_16_ B
*I u_eop_detector\/_37_:A2 B
*I u_eop_detector\/_36_:ZN B
*CAP
1 u_eop_detector\/_16_ 2.941996
2 u_eop_detector\/_16_ u_eop_detector\/se0_count[2] 0.004628
*RES
1 u_eop_detector\/_16_ u_eop_detector\/_16_:2 15.770100
2 u_eop_detector\/_16_ u_eop_detector\/_16_:3 27.521900
3 u_eop_detector\/_16_ u_eop_detector\/_16_:4 30.533500
4 u_eop_detector\/_16_ u_eop_detector\/_16_:5 20.580000
5 u_eop_detector\/_16_ u_eop_detector\/_16_:6 19.055300
6 u_eop_detector\/_16_ u_eop_detector\/_16_:7 16.783200
7 u_eop_detector\/_16_ u_eop_detector\/_16_:8 28.230000
8 u_eop_detector\/_16_ u_eop_detector\/_16_:9 27.600700
9 u_eop_detector\/_16_ u_eop_detector\/_37_:A2 0.000000
10 u_eop_detector\/_16_ u_eop_detector\/_36_:ZN 0.000000
*END

*D_NET u_eop_detector\/_17_ 3.943952
*CONN
*P u_eop_detector\/_17_ B
*I u_eop_detector\/_51_:A1 B
*I u_eop_detector\/_43_:A1 B
*I u_eop_detector\/_39_:A1 B
*I u_eop_detector\/_38_:ZN B
*CAP
1 u_eop_detector\/_17_ 3.900917
2 u_eop_detector\/_17_ u_eop_detector\/_18_ 0.008429
3 u_eop_detector\/_17_ u_eop_detector\/_21_ 0.011467
4 u_eop_detector\/_17_ u_eop_detector\/se0_count[0] 0.004628
5 u_eop_detector\/_17_ u_eop_detector\/se0_count[5] 0.018511
*RES
1 u_eop_detector\/_17_ u_eop_detector\/_17_:2 66.424100
2 u_eop_detector\/_17_ u_eop_detector\/_17_:3 51.113300
3 u_eop_detector\/_17_ u_eop_detector\/_17_:4 50.803400
4 u_eop_detector\/_17_ u_eop_detector\/_17_:5 66.252300
5 u_eop_detector\/_17_ u_eop_detector\/_17_:6 10.651800
6 u_eop_detector\/_17_ u_eop_detector\/_17_:7 10.988500
7 u_eop_detector\/_17_ u_eop_detector\/_17_:8 11.300400
8 u_eop_detector\/_17_ u_eop_detector\/_17_:9 11.781800
9 u_eop_detector\/_17_ u_eop_detector\/_51_:A1 0.000000
10 u_eop_detector\/_17_ u_eop_detector\/_43_:A1 0.000000
11 u_eop_detector\/_17_ u_eop_detector\/_39_:A1 0.000000
12 u_eop_detector\/_17_ u_eop_detector\/_38_:ZN 0.000000
*END

*D_NET u_eop_detector\/_18_ 3.382870
*CONN
*P u_eop_detector\/_18_ B
*I u_eop_detector\/_41_:B B
*I u_eop_detector\/_40_:A2 B
*I u_eop_detector\/_39_:ZN B
*CAP
1 u_eop_detector\/_18_ 3.341219
2 u_eop_detector\/_18_ u_eop_detector\/_19_ 0.004628
3 u_eop_detector\/_18_ u_eop_detector\/_20_ 0.004628
4 u_eop_detector\/_18_ u_eop_detector\/_21_ 0.004628
5 u_eop_detector\/_18_ u_eop_detector\/se0_count[0] 0.004628
6 u_eop_detector\/_18_ u_eop_detector\/se0_count[1] 0.023139
*RES
1 u_eop_detector\/_18_ u_eop_detector\/_18_:2 14.435700
2 u_eop_detector\/_18_ u_eop_detector\/_18_:3 4.196700
3 u_eop_detector\/_18_ u_eop_detector\/_18_:4 40.146300
4 u_eop_detector\/_18_ u_eop_detector\/_18_:5 42.433100
5 u_eop_detector\/_18_ u_eop_detector\/_18_:6 32.415200
6 u_eop_detector\/_18_ u_eop_detector\/_18_:7 23.284300
7 u_eop_detector\/_18_ u_eop_detector\/_18_:8 27.402300
8 u_eop_detector\/_18_ u_eop_detector\/_41_:B 0.000000
9 u_eop_detector\/_18_ u_eop_detector\/_40_:A2 0.000000
10 u_eop_detector\/_18_ u_eop_detector\/_39_:ZN 0.000000
*END

*D_NET u_eop_detector\/_19_ 2.226869
*CONN
*P u_eop_detector\/_19_ B
*I u_eop_detector\/_44_:A2 B
*I u_eop_detector\/_41_:ZN B
*CAP
1 u_eop_detector\/_19_ 2.209515
2 u_eop_detector\/_19_ u_eop_detector\/_20_ 0.004628
3 u_eop_detector\/_19_ u_eop_detector\/_21_ 0.008925
4 u_eop_detector\/_19_ u_eop_detector\/se0_count[1] 0.003801
*RES
1 u_eop_detector\/_19_ u_eop_detector\/_19_:2 25.490700
2 u_eop_detector\/_19_ u_eop_detector\/_19_:3 18.040000
3 u_eop_detector\/_19_ u_eop_detector\/_19_:4 14.615600
4 u_eop_detector\/_19_ u_eop_detector\/_19_:5 13.050500
5 u_eop_detector\/_19_ u_eop_detector\/_19_:6 7.857900
6 u_eop_detector\/_19_ u_eop_detector\/_19_:7 10.112500
7 u_eop_detector\/_19_ u_eop_detector\/_44_:A2 0.000000
8 u_eop_detector\/_19_ u_eop_detector\/_41_:ZN 0.000000
*END

*D_NET u_eop_detector\/_20_ 2.139995
*CONN
*P u_eop_detector\/_20_ B
*I u_eop_detector\/_43_:A2 B
*I u_eop_detector\/_42_:ZN B
*CAP
1 u_eop_detector\/_20_ 2.121956
2 u_eop_detector\/_20_ u_eop_detector\/se0_count[1] 0.018039
*RES
1 u_eop_detector\/_20_ u_eop_detector\/_20_:2 25.237200
2 u_eop_detector\/_20_ u_eop_detector\/_20_:3 19.050100
3 u_eop_detector\/_20_ u_eop_detector\/_20_:4 17.667300
4 u_eop_detector\/_20_ u_eop_detector\/_20_:5 13.195400
5 u_eop_detector\/_20_ u_eop_detector\/_20_:6 11.185000
6 u_eop_detector\/_20_ u_eop_detector\/_43_:A2 0.000000
7 u_eop_detector\/_20_ u_eop_detector\/_42_:ZN 0.000000
*END

*D_NET u_eop_detector\/_21_ 2.143273
*CONN
*P u_eop_detector\/_21_ B
*I u_eop_detector\/_44_:A3 B
*I u_eop_detector\/_43_:ZN B
*CAP
1 u_eop_detector\/_21_ 2.134018
2 u_eop_detector\/_21_ u_eop_detector\/se0_count[0] 0.009255
*RES
1 u_eop_detector\/_21_ u_eop_detector\/_21_:2 25.376700
2 u_eop_detector\/_21_ u_eop_detector\/_21_:3 18.670800
3 u_eop_detector\/_21_ u_eop_detector\/_21_:4 7.811900
4 u_eop_detector\/_21_ u_eop_detector\/_21_:5 9.048600
5 u_eop_detector\/_21_ u_eop_detector\/_21_:6 13.961500
6 u_eop_detector\/_21_ u_eop_detector\/_21_:7 13.975400
7 u_eop_detector\/_21_ u_eop_detector\/_44_:A3 0.000000
8 u_eop_detector\/_21_ u_eop_detector\/_43_:ZN 0.000000
*END

*D_NET u_eop_detector\/_22_ 1.328341
*CONN
*P u_eop_detector\/_22_ B
*I u_eop_detector\/_47_:A1 B
*I u_eop_detector\/_45_:ZN B
*CAP
1 u_eop_detector\/_22_ 1.322887
2 u_eop_detector\/_22_ u_eop_detector\/se0_count[4] 0.005454
*RES
1 u_eop_detector\/_22_ u_eop_detector\/_22_:2 21.572600
2 u_eop_detector\/_22_ u_eop_detector\/_22_:3 20.348500
3 u_eop_detector\/_22_ u_eop_detector\/_22_:4 19.934000
4 u_eop_detector\/_22_ u_eop_detector\/_22_:5 20.348500
5 u_eop_detector\/_22_ u_eop_detector\/_47_:A1 0.000000
6 u_eop_detector\/_22_ u_eop_detector\/_45_:ZN 0.000000
*END

*D_NET u_eop_detector\/_23_ 1.761099
*CONN
*P u_eop_detector\/_23_ B
*I u_eop_detector\/_47_:A2 B
*I u_eop_detector\/_46_:ZN B
*CAP
1 u_eop_detector\/_23_ 1.757298
2 u_eop_detector\/_23_ u_eop_detector\/se0_count[3] 0.003801
*RES
1 u_eop_detector\/_23_ u_eop_detector\/_23_:2 21.325300
2 u_eop_detector\/_23_ u_eop_detector\/_23_:3 10.764500
3 u_eop_detector\/_23_ u_eop_detector\/_23_:4 14.453100
4 u_eop_detector\/_23_ u_eop_detector\/_23_:5 26.504200
5 u_eop_detector\/_23_ u_eop_detector\/_23_:6 4.959600
6 u_eop_detector\/_23_ u_eop_detector\/_23_:7 6.340600
7 u_eop_detector\/_23_ u_eop_detector\/_47_:A2 0.000000
8 u_eop_detector\/_23_ u_eop_detector\/_46_:ZN 0.000000
*END

*D_NET u_eop_detector\/_24_ 1.681313
*CONN
*P u_eop_detector\/_24_ B
*I u_eop_detector\/_50_:A2 B
*I u_eop_detector\/_48_:Z B
*CAP
1 u_eop_detector\/_24_ 1.672057
2 u_eop_detector\/_24_ u_eop_detector\/se0_count[2] 0.004628
3 u_eop_detector\/_24_ u_eop_detector\/se0_count[3] 0.004628
*RES
1 u_eop_detector\/_24_ u_eop_detector\/_24_:2 27.504300
2 u_eop_detector\/_24_ u_eop_detector\/_24_:3 15.614800
3 u_eop_detector\/_24_ u_eop_detector\/_24_:4 28.062800
4 u_eop_detector\/_24_ u_eop_detector\/_24_:5 15.068100
5 u_eop_detector\/_24_ u_eop_detector\/_50_:A2 0.000000
6 u_eop_detector\/_24_ u_eop_detector\/_48_:Z 0.000000
*END

*D_NET u_eop_detector\/_25_ 2.139542
*CONN
*P u_eop_detector\/_25_ B
*I u_eop_detector\/_50_:A3 B
*I u_eop_detector\/_49_:ZN B
*CAP
1 u_eop_detector\/_25_ 2.109563
2 u_eop_detector\/_25_ u_eop_detector\/se0_count[2] 0.025351
3 u_eop_detector\/_25_ u_eop_detector\/se0_count[3] 0.004628
*RES
1 u_eop_detector\/_25_ u_eop_detector\/_25_:2 25.370000
2 u_eop_detector\/_25_ u_eop_detector\/_25_:3 18.597800
3 u_eop_detector\/_25_ u_eop_detector\/_25_:4 7.782500
4 u_eop_detector\/_25_ u_eop_detector\/_25_:5 8.759800
5 u_eop_detector\/_25_ u_eop_detector\/_25_:6 13.971000
6 u_eop_detector\/_25_ u_eop_detector\/_25_:7 14.119700
7 u_eop_detector\/_25_ u_eop_detector\/_50_:A3 0.000000
8 u_eop_detector\/_25_ u_eop_detector\/_49_:ZN 0.000000
*END

*D_NET u_eop_detector\/_26_ 2.177598
*CONN
*P u_eop_detector\/_26_ B
*I u_eop_detector\/_53_:A2 B
*I u_eop_detector\/_52_:ZN B
*CAP
1 u_eop_detector\/_26_ 2.171573
2 u_eop_detector\/_26_ u_eop_detector\/se0_count[3] 0.006025
*RES
1 u_eop_detector\/_26_ u_eop_detector\/_26_:2 18.312800
2 u_eop_detector\/_26_ u_eop_detector\/_26_:3 24.722800
3 u_eop_detector\/_26_ u_eop_detector\/_26_:4 14.448100
4 u_eop_detector\/_26_ u_eop_detector\/_26_:5 6.459500
5 u_eop_detector\/_26_ u_eop_detector\/_26_:6 15.042300
6 u_eop_detector\/_26_ u_eop_detector\/_26_:7 10.704800
7 u_eop_detector\/_26_ u_eop_detector\/_26_:8 2.768900
8 u_eop_detector\/_26_ u_eop_detector\/_53_:A2 0.000000
9 u_eop_detector\/_26_ u_eop_detector\/_52_:ZN 0.000000
*END

*D_NET u_eop_detector\/se0_count\[0\] 4.375708
*CONN
*P u_eop_detector\/se0_count\[0\] B
*I u_eop_detector\/_56_:Q B
*I u_eop_detector\/_43_:B B
*I u_eop_detector\/_39_:A2 B
*I u_eop_detector\/_30_:I B
*CAP
1 u_eop_detector\/se0_count[0] 4.375708
*RES
1 u_eop_detector\/se0_count[0] u_eop_detector\/se0_count\[0\]:2 24.847500
2 u_eop_detector\/se0_count[0] u_eop_detector\/se0_count\[0\]:3 36.424500
3 u_eop_detector\/se0_count[0] u_eop_detector\/se0_count\[0\]:4 35.459700
4 u_eop_detector\/se0_count[0] u_eop_detector\/se0_count\[0\]:5 20.484700
5 u_eop_detector\/se0_count[0] u_eop_detector\/se0_count\[0\]:6 29.412000
6 u_eop_detector\/se0_count[0] u_eop_detector\/se0_count\[0\]:7 51.805100
7 u_eop_detector\/se0_count[0] u_eop_detector\/se0_count\[0\]:8 29.538800
8 u_eop_detector\/se0_count[0] u_eop_detector\/se0_count\[0\]:9 53.641500
9 u_eop_detector\/se0_count[0] u_eop_detector\/_56_:Q 0.000000
10 u_eop_detector\/se0_count[0] u_eop_detector\/_43_:B 0.000000
11 u_eop_detector\/se0_count[0] u_eop_detector\/_39_:A2 0.000000
12 u_eop_detector\/se0_count[0] u_eop_detector\/_30_:I 0.000000
*END

*D_NET u_eop_detector\/se0_count\[1\] 4.828631
*CONN
*P u_eop_detector\/se0_count\[1\] B
*I u_eop_detector\/_57_:Q B
*I u_eop_detector\/_42_:A1 B
*I u_eop_detector\/_41_:A1 B
*I u_eop_detector\/_34_:I B
*I u_eop_detector\/_31_:A3 B
*CAP
1 u_eop_detector\/se0_count[1] 4.828631
*RES
1 u_eop_detector\/se0_count[1] u_eop_detector\/se0_count\[1\]:2 64.274400
2 u_eop_detector\/se0_count[1] u_eop_detector\/se0_count\[1\]:3 11.519700
3 u_eop_detector\/se0_count[1] u_eop_detector\/se0_count\[1\]:4 11.060200
4 u_eop_detector\/se0_count[1] u_eop_detector\/se0_count\[1\]:5 23.587000
5 u_eop_detector\/se0_count[1] u_eop_detector\/se0_count\[1\]:6 54.243700
6 u_eop_detector\/se0_count[1] u_eop_detector\/se0_count\[1\]:7 36.488200
7 u_eop_detector\/se0_count[1] u_eop_detector\/se0_count\[1\]:8 47.180200
8 u_eop_detector\/se0_count[1] u_eop_detector\/se0_count\[1\]:9 38.061100
9 u_eop_detector\/se0_count[1] u_eop_detector\/se0_count\[1\]:10 68.914100
10 u_eop_detector\/se0_count[1] u_eop_detector\/se0_count\[1\]:11 21.843400
11 u_eop_detector\/se0_count[1] u_eop_detector\/_57_:Q 0.000000
12 u_eop_detector\/se0_count[1] u_eop_detector\/_42_:A1 0.000000
13 u_eop_detector\/se0_count[1] u_eop_detector\/_41_:A1 0.000000
14 u_eop_detector\/se0_count[1] u_eop_detector\/_34_:I 0.000000
15 u_eop_detector\/se0_count[1] u_eop_detector\/_31_:A3 0.000000
*END

*D_NET u_eop_detector\/se0_count\[2\] 9.310206
*CONN
*P u_eop_detector\/se0_count\[2\] B
*I u_eop_detector\/_58_:Q B
*I u_eop_detector\/_52_:A3 B
*I u_eop_detector\/_49_:A1 B
*I u_eop_detector\/_48_:A2 B
*I u_eop_detector\/_46_:A2 B
*I u_eop_detector\/_36_:A1 B
*I u_eop_detector\/_29_:A3 B
*CAP
1 u_eop_detector\/se0_count[2] 9.281410
2 u_eop_detector\/se0_count[2] u_eop_detector\/se0_count[3] 0.017684
3 u_eop_detector\/se0_count[2] u_eop_detector\/se0_count[4] 0.011112
*RES
1 u_eop_detector\/se0_count[2] u_eop_detector\/se0_count\[2\]:2 50.965500
2 u_eop_detector\/se0_count[2] u_eop_detector\/se0_count\[2\]:3 28.392500
3 u_eop_detector\/se0_count[2] u_eop_detector\/se0_count\[2\]:4 31.537300
4 u_eop_detector\/se0_count[2] u_eop_detector\/se0_count\[2\]:5 43.733300
5 u_eop_detector\/se0_count[2] u_eop_detector\/se0_count\[2\]:6 30.214700
6 u_eop_detector\/se0_count[2] u_eop_detector\/se0_count\[2\]:7 57.511200
7 u_eop_detector\/se0_count[2] u_eop_detector\/se0_count\[2\]:8 38.908000
8 u_eop_detector\/se0_count[2] u_eop_detector\/se0_count\[2\]:9 46.973400
9 u_eop_detector\/se0_count[2] u_eop_detector\/se0_count\[2\]:10 53.964200
10 u_eop_detector\/se0_count[2] u_eop_detector\/se0_count\[2\]:11 42.095100
11 u_eop_detector\/se0_count[2] u_eop_detector\/se0_count\[2\]:12 59.972400
12 u_eop_detector\/se0_count[2] u_eop_detector\/se0_count\[2\]:13 24.086600
13 u_eop_detector\/se0_count[2] u_eop_detector\/se0_count\[2\]:14 48.193000
14 u_eop_detector\/se0_count[2] u_eop_detector\/se0_count\[2\]:15 19.169900
15 u_eop_detector\/se0_count[2] u_eop_detector\/se0_count\[2\]:16 63.385000
16 u_eop_detector\/se0_count[2] u_eop_detector\/se0_count\[2\]:17 74.396800
17 u_eop_detector\/se0_count[2] u_eop_detector\/se0_count\[2\]:18 40.057800
18 u_eop_detector\/se0_count[2] u_eop_detector\/se0_count\[2\]:19 31.054600
19 u_eop_detector\/se0_count[2] u_eop_detector\/_58_:Q 0.000000
20 u_eop_detector\/se0_count[2] u_eop_detector\/_52_:A3 0.000000
21 u_eop_detector\/se0_count[2] u_eop_detector\/_49_:A1 0.000000
22 u_eop_detector\/se0_count[2] u_eop_detector\/_48_:A2 0.000000
23 u_eop_detector\/se0_count[2] u_eop_detector\/_46_:A2 0.000000
24 u_eop_detector\/se0_count[2] u_eop_detector\/_36_:A1 0.000000
25 u_eop_detector\/se0_count[2] u_eop_detector\/_29_:A3 0.000000
*END

*D_NET u_eop_detector\/se0_count\[3\] 8.152261
*CONN
*P u_eop_detector\/se0_count\[3\] B
*I u_eop_detector\/_59_:Q B
*I u_eop_detector\/_52_:A1 B
*I u_eop_detector\/_49_:B B
*I u_eop_detector\/_48_:A1 B
*I u_eop_detector\/_46_:A1 B
*I u_eop_detector\/_29_:A1 B
*CAP
1 u_eop_detector\/se0_count[3] 8.142598
2 u_eop_detector\/se0_count[3] u_eop_detector\/se0_count[4] 0.009663
*RES
1 u_eop_detector\/se0_count[3] u_eop_detector\/se0_count\[3\]:2 20.429600
2 u_eop_detector\/se0_count[3] u_eop_detector\/se0_count\[3\]:3 51.164600
3 u_eop_detector\/se0_count[3] u_eop_detector\/se0_count\[3\]:4 21.895200
4 u_eop_detector\/se0_count[3] u_eop_detector\/se0_count\[3\]:5 42.578100
5 u_eop_detector\/se0_count[3] u_eop_detector\/se0_count\[3\]:6 29.191200
6 u_eop_detector\/se0_count[3] u_eop_detector\/se0_count\[3\]:7 30.143300
7 u_eop_detector\/se0_count[3] u_eop_detector\/se0_count\[3\]:8 42.339400
8 u_eop_detector\/se0_count[3] u_eop_detector\/se0_count\[3\]:9 52.033900
9 u_eop_detector\/se0_count[3] u_eop_detector\/se0_count\[3\]:10 38.251000
10 u_eop_detector\/se0_count[3] u_eop_detector\/se0_count\[3\]:11 58.622000
11 u_eop_detector\/se0_count[3] u_eop_detector\/se0_count\[3\]:12 48.906200
12 u_eop_detector\/se0_count[3] u_eop_detector\/se0_count\[3\]:13 67.541200
13 u_eop_detector\/se0_count[3] u_eop_detector\/se0_count\[3\]:14 38.292500
14 u_eop_detector\/se0_count[3] u_eop_detector\/se0_count\[3\]:15 30.761000
15 u_eop_detector\/se0_count[3] u_eop_detector\/_59_:Q 0.000000
16 u_eop_detector\/se0_count[3] u_eop_detector\/_52_:A1 0.000000
17 u_eop_detector\/se0_count[3] u_eop_detector\/_49_:B 0.000000
18 u_eop_detector\/se0_count[3] u_eop_detector\/_48_:A1 0.000000
19 u_eop_detector\/se0_count[3] u_eop_detector\/_46_:A1 0.000000
20 u_eop_detector\/se0_count[3] u_eop_detector\/_29_:A1 0.000000
*END

*D_NET u_eop_detector\/se0_count\[4\] 4.250523
*CONN
*P u_eop_detector\/se0_count\[4\] B
*I u_eop_detector\/_60_:Q B
*I u_eop_detector\/_52_:A2 B
*I u_eop_detector\/_45_:I B
*I u_eop_detector\/_29_:A2 B
*CAP
1 u_eop_detector\/se0_count[4] 4.250523
*RES
1 u_eop_detector\/se0_count[4] u_eop_detector\/se0_count\[4\]:2 16.323100
2 u_eop_detector\/se0_count[4] u_eop_detector\/se0_count\[4\]:3 38.847500
3 u_eop_detector\/se0_count[4] u_eop_detector\/se0_count\[4\]:4 38.115900
4 u_eop_detector\/se0_count[4] u_eop_detector\/se0_count\[4\]:5 13.638200
5 u_eop_detector\/se0_count[4] u_eop_detector\/se0_count\[4\]:6 61.253200
6 u_eop_detector\/se0_count[4] u_eop_detector\/se0_count\[4\]:7 34.140200
7 u_eop_detector\/se0_count[4] u_eop_detector\/se0_count\[4\]:8 40.171800
8 u_eop_detector\/se0_count[4] u_eop_detector\/se0_count\[4\]:9 40.708000
9 u_eop_detector\/se0_count[4] u_eop_detector\/se0_count\[4\]:10 57.551700
10 u_eop_detector\/se0_count[4] u_eop_detector\/se0_count\[4\]:11 33.921600
11 u_eop_detector\/se0_count[4] u_eop_detector\/_60_:Q 0.000000
12 u_eop_detector\/se0_count[4] u_eop_detector\/_52_:A2 0.000000
13 u_eop_detector\/se0_count[4] u_eop_detector\/_45_:I 0.000000
14 u_eop_detector\/se0_count[4] u_eop_detector\/_29_:A2 0.000000
*END

*D_NET u_eop_detector\/se0_count\[5\] 6.687802
*CONN
*P u_eop_detector\/se0_count\[5\] B
*I u_eop_detector\/_61_:Q B
*I u_eop_detector\/_38_:I B
*I u_eop_detector\/_35_:A1 B
*I u_eop_detector\/_31_:A1 B
*CAP
1 u_eop_detector\/se0_count[5] 6.687802
*RES
1 u_eop_detector\/se0_count[5] u_eop_detector\/se0_count\[5\]:2 38.493700
2 u_eop_detector\/se0_count[5] u_eop_detector\/se0_count\[5\]:3 23.705200
3 u_eop_detector\/se0_count[5] u_eop_detector\/se0_count\[5\]:4 8.791500
4 u_eop_detector\/se0_count[5] u_eop_detector\/se0_count\[5\]:5 31.577200
5 u_eop_detector\/se0_count[5] u_eop_detector\/se0_count\[5\]:6 38.006800
6 u_eop_detector\/se0_count[5] u_eop_detector\/se0_count\[5\]:7 13.296100
7 u_eop_detector\/se0_count[5] u_eop_detector\/se0_count\[5\]:8 25.741300
8 u_eop_detector\/se0_count[5] u_eop_detector\/se0_count\[5\]:9 43.935700
9 u_eop_detector\/se0_count[5] u_eop_detector\/se0_count\[5\]:10 27.073700
10 u_eop_detector\/se0_count[5] u_eop_detector\/se0_count\[5\]:11 37.868000
11 u_eop_detector\/se0_count[5] u_eop_detector\/se0_count\[5\]:12 48.554000
12 u_eop_detector\/se0_count[5] u_eop_detector\/se0_count\[5\]:13 87.590100
13 u_eop_detector\/se0_count[5] u_eop_detector\/se0_count\[5\]:14 33.379800
14 u_eop_detector\/se0_count[5] u_eop_detector\/se0_count\[5\]:15 89.765100
15 u_eop_detector\/se0_count[5] u_eop_detector\/_61_:Q 0.000000
16 u_eop_detector\/se0_count[5] u_eop_detector\/_38_:I 0.000000
17 u_eop_detector\/se0_count[5] u_eop_detector\/_35_:A1 0.000000
18 u_eop_detector\/se0_count[5] u_eop_detector\/_31_:A1 0.000000
*END

*D_NET u_line_state\/_0_ 1.852546
*CONN
*P u_line_state\/_0_ B
*I u_line_state\/_6_:D B
*I u_line_state\/_4_:ZN B
*CAP
1 u_line_state\/_0_ 1.849394
2 u_line_state\/_0_ u_line_state\/_2_ 0.003152
*RES
1 u_line_state\/_0_ u_line_state\/_0_:2 17.716700
2 u_line_state\/_0_ u_line_state\/_0_:3 24.427500
3 u_line_state\/_0_ u_line_state\/_0_:4 21.546000
4 u_line_state\/_0_ u_line_state\/_0_:5 8.597000
5 u_line_state\/_0_ u_line_state\/_0_:6 12.884500
6 u_line_state\/_0_ u_line_state\/_6_:D 0.000000
7 u_line_state\/_0_ u_line_state\/_4_:ZN 0.000000
*END

*D_NET u_line_state\/_1_ 1.772363
*CONN
*P u_line_state\/_1_ B
*I u_line_state\/_7_:D B
*I u_line_state\/_5_:Z B
*CAP
1 u_line_state\/_1_ 1.772363
*RES
1 u_line_state\/_1_ u_line_state\/_1_:2 13.016400
2 u_line_state\/_1_ u_line_state\/_1_:3 18.614200
3 u_line_state\/_1_ u_line_state\/_1_:4 6.914600
4 u_line_state\/_1_ u_line_state\/_1_:5 10.790000
5 u_line_state\/_1_ u_line_state\/_1_:6 8.732900
6 u_line_state\/_1_ u_line_state\/_1_:7 8.575500
7 u_line_state\/_1_ u_line_state\/_1_:8 7.872100
8 u_line_state\/_1_ u_line_state\/_1_:9 3.709700
9 u_line_state\/_1_ u_line_state\/_1_:10 1.078800
10 u_line_state\/_1_ u_line_state\/_1_:11 3.165100
11 u_line_state\/_1_ u_line_state\/_7_:D 0.000000
12 u_line_state\/_1_ u_line_state\/_5_:Z 0.000000
*END

*D_NET u_line_state\/_2_ 1.581798
*CONN
*P u_line_state\/_2_ B
*I u_line_state\/_4_:A1 B
*I u_line_state\/_3_:ZN B
*CAP
1 u_line_state\/_2_ 1.581798
*RES
1 u_line_state\/_2_ u_line_state\/_2_:2 19.135500
2 u_line_state\/_2_ u_line_state\/_2_:3 19.455900
3 u_line_state\/_2_ u_line_state\/_2_:4 13.475300
4 u_line_state\/_2_ u_line_state\/_2_:5 9.137900
5 u_line_state\/_2_ u_line_state\/_2_:6 13.611500
6 u_line_state\/_2_ u_line_state\/_2_:7 9.198000
7 u_line_state\/_2_ u_line_state\/_4_:A1 0.000000
8 u_line_state\/_2_ u_line_state\/_3_:ZN 0.000000
*END

*D_NET u_stuffer\/_00_ 2.407671
*CONN
*P u_stuffer\/_00_ B
*I u_stuffer\/_40_:D B
*I u_stuffer\/_26_:ZN B
*CAP
1 u_stuffer\/_00_ 2.372438
2 u_stuffer\/_00_ u_stuffer\/_07_ 0.000443
3 u_stuffer\/_00_ u_stuffer\/_08_ 0.011900
4 u_stuffer\/_00_ u_stuffer\/_09_ 0.003801
5 u_stuffer\/_00_ u_stuffer\/_11_ 0.008429
6 u_stuffer\/_00_ u_stuffer\/ones[1] 0.010660
*RES
1 u_stuffer\/_00_ u_stuffer\/_00_:2 17.794200
2 u_stuffer\/_00_ u_stuffer\/_00_:3 14.223300
3 u_stuffer\/_00_ u_stuffer\/_00_:4 0.850300
4 u_stuffer\/_00_ u_stuffer\/_00_:5 2.696700
5 u_stuffer\/_00_ u_stuffer\/_00_:6 6.393200
6 u_stuffer\/_00_ u_stuffer\/_00_:7 4.544900
7 u_stuffer\/_00_ u_stuffer\/_00_:8 9.031100
8 u_stuffer\/_00_ u_stuffer\/_00_:9 7.508700
9 u_stuffer\/_00_ u_stuffer\/_00_:10 5.544500
10 u_stuffer\/_00_ u_stuffer\/_00_:11 6.280200
11 u_stuffer\/_00_ u_stuffer\/_00_:12 6.968400
12 u_stuffer\/_00_ u_stuffer\/_00_:13 5.768400
13 u_stuffer\/_00_ u_stuffer\/_40_:D 0.000000
14 u_stuffer\/_00_ u_stuffer\/_26_:ZN 0.000000
*END

*D_NET u_stuffer\/_01_ 2.061077
*CONN
*P u_stuffer\/_01_ B
*I u_stuffer\/_41_:D B
*I u_stuffer\/_29_:ZN B
*CAP
1 u_stuffer\/_01_ 2.054797
2 u_stuffer\/_01_ u_stuffer\/ones[2] 0.006280
*RES
1 u_stuffer\/_01_ u_stuffer\/_01_:2 11.316400
2 u_stuffer\/_01_ u_stuffer\/_01_:3 22.254600
3 u_stuffer\/_01_ u_stuffer\/_01_:4 20.118000
4 u_stuffer\/_01_ u_stuffer\/_01_:5 5.477900
5 u_stuffer\/_01_ u_stuffer\/_01_:6 1.996700
6 u_stuffer\/_01_ u_stuffer\/_01_:7 11.573400
7 u_stuffer\/_01_ u_stuffer\/_01_:8 13.725100
8 u_stuffer\/_01_ u_stuffer\/_41_:D 0.000000
9 u_stuffer\/_01_ u_stuffer\/_29_:ZN 0.000000
*END

*D_NET u_stuffer\/_02_ 1.684886
*CONN
*P u_stuffer\/_02_ B
*I u_stuffer\/_39_:D B
*I u_stuffer\/_32_:ZN B
*CAP
1 u_stuffer\/_02_ 1.684886
*RES
1 u_stuffer\/_02_ u_stuffer\/_02_:2 22.744700
2 u_stuffer\/_02_ u_stuffer\/_02_:3 17.927500
3 u_stuffer\/_02_ u_stuffer\/_02_:4 0.767500
4 u_stuffer\/_02_ u_stuffer\/_02_:5 14.115300
5 u_stuffer\/_02_ u_stuffer\/_02_:6 16.712400
6 u_stuffer\/_02_ u_stuffer\/_02_:7 8.718100
7 u_stuffer\/_02_ u_stuffer\/_02_:8 3.629700
8 u_stuffer\/_02_ u_stuffer\/_39_:D 0.000000
9 u_stuffer\/_02_ u_stuffer\/_32_:ZN 0.000000
*END

*D_NET u_stuffer\/_03_ 1.899255
*CONN
*P u_stuffer\/_03_ B
*I u_stuffer\/_43_:D B
*I u_stuffer\/_36_:ZN B
*CAP
1 u_stuffer\/_03_ 1.892892
2 u_stuffer\/_03_ u_stuffer\/_14_ 0.006363
*RES
1 u_stuffer\/_03_ u_stuffer\/_03_:2 21.836700
2 u_stuffer\/_03_ u_stuffer\/_03_:3 19.226300
3 u_stuffer\/_03_ u_stuffer\/_03_:4 12.365800
4 u_stuffer\/_03_ u_stuffer\/_03_:5 9.028400
5 u_stuffer\/_03_ u_stuffer\/_03_:6 10.533000
6 u_stuffer\/_03_ u_stuffer\/_03_:7 12.649000
7 u_stuffer\/_03_ u_stuffer\/_43_:D 0.000000
8 u_stuffer\/_03_ u_stuffer\/_36_:ZN 0.000000
*END

*D_NET u_stuffer\/_04_ 2.092659
*CONN
*P u_stuffer\/_04_ B
*I u_stuffer\/_42_:D B
*I u_stuffer\/_37_:ZN B
*CAP
1 u_stuffer\/_04_ 2.076229
2 u_stuffer\/_04_ u_stuffer\/_11_ 0.004628
3 u_stuffer\/_04_ u_stuffer\/_17_ 0.003801
4 u_stuffer\/_04_ u_stuffer\/ones[0] 0.008001
*RES
1 u_stuffer\/_04_ u_stuffer\/_04_:2 16.308600
2 u_stuffer\/_04_ u_stuffer\/_04_:3 9.892800
3 u_stuffer\/_04_ u_stuffer\/_04_:4 11.844500
4 u_stuffer\/_04_ u_stuffer\/_04_:5 8.697300
5 u_stuffer\/_04_ u_stuffer\/_04_:6 11.775200
6 u_stuffer\/_04_ u_stuffer\/_04_:7 11.212700
7 u_stuffer\/_04_ u_stuffer\/_04_:8 0.483300
8 u_stuffer\/_04_ u_stuffer\/_04_:9 7.736200
9 u_stuffer\/_04_ u_stuffer\/_04_:10 3.628100
10 u_stuffer\/_04_ u_stuffer\/_04_:11 4.589100
11 u_stuffer\/_04_ u_stuffer\/_42_:D 0.000000
12 u_stuffer\/_04_ u_stuffer\/_37_:ZN 0.000000
*END

*D_NET u_stuffer\/_05_ 2.521616
*CONN
*P u_stuffer\/_05_ B
*I u_stuffer\/_44_:D B
*I u_stuffer\/_38_:ZN B
*CAP
1 u_stuffer\/_05_ 2.513600
2 u_stuffer\/_05_ u_stuffer\/_11_ 0.004628
3 u_stuffer\/_05_ u_stuffer\/_17_ 0.003388
*RES
1 u_stuffer\/_05_ u_stuffer\/_05_:2 15.706700
2 u_stuffer\/_05_ u_stuffer\/_05_:3 22.046800
3 u_stuffer\/_05_ u_stuffer\/_05_:4 22.058000
4 u_stuffer\/_05_ u_stuffer\/_05_:5 13.351500
5 u_stuffer\/_05_ u_stuffer\/_05_:6 15.513000
6 u_stuffer\/_05_ u_stuffer\/_44_:D 0.000000
7 u_stuffer\/_05_ u_stuffer\/_38_:ZN 0.000000
*END

*D_NET u_stuffer\/_06_ 7.438121
*CONN
*P u_stuffer\/_06_ B
*I u_stuffer\/_30_:A2 B
*I u_stuffer\/_21_:A2 B
*I u_stuffer\/_20_:A2 B
*I u_stuffer\/_19_:ZN B
*CAP
1 u_stuffer\/_06_ 7.347035
2 u_stuffer\/_06_ u_stuffer\/_07_ 0.012230
3 u_stuffer\/_06_ u_stuffer\/_10_ 0.000826
4 u_stuffer\/_06_ u_stuffer\/_11_ 0.021486
5 u_stuffer\/_06_ u_stuffer\/_13_ 0.005227
6 u_stuffer\/_06_ u_stuffer\/_14_ 0.003187
7 u_stuffer\/_06_ u_stuffer\/_17_ 0.009255
8 u_stuffer\/_06_ u_stuffer\/ones[0] 0.022843
9 u_stuffer\/_06_ u_stuffer\/ones[1] 0.008429
10 u_stuffer\/_06_ u_stuffer\/ones[2] 0.007603
*RES
1 u_stuffer\/_06_ u_stuffer\/_06_:2 31.331500
2 u_stuffer\/_06_ u_stuffer\/_06_:3 26.801400
3 u_stuffer\/_06_ u_stuffer\/_06_:4 33.346500
4 u_stuffer\/_06_ u_stuffer\/_06_:5 29.199900
5 u_stuffer\/_06_ u_stuffer\/_06_:6 25.545600
6 u_stuffer\/_06_ u_stuffer\/_06_:7 30.239200
7 u_stuffer\/_06_ u_stuffer\/_06_:8 12.929900
8 u_stuffer\/_06_ u_stuffer\/_06_:9 8.516400
9 u_stuffer\/_06_ u_stuffer\/_06_:10 18.553900
10 u_stuffer\/_06_ u_stuffer\/_06_:11 17.090500
11 u_stuffer\/_06_ u_stuffer\/_06_:12 17.494600
12 u_stuffer\/_06_ u_stuffer\/_06_:13 12.609900
13 u_stuffer\/_06_ u_stuffer\/_06_:14 12.520900
14 u_stuffer\/_06_ u_stuffer\/_06_:15 17.947900
15 u_stuffer\/_06_ u_stuffer\/_06_:16 17.206000
16 u_stuffer\/_06_ u_stuffer\/_06_:17 17.151500
17 u_stuffer\/_06_ u_stuffer\/_06_:18 13.629900
18 u_stuffer\/_06_ u_stuffer\/_06_:19 14.493500
19 u_stuffer\/_06_ u_stuffer\/_06_:20 17.387300
20 u_stuffer\/_06_ u_stuffer\/_06_:21 19.298100
21 u_stuffer\/_06_ u_stuffer\/_30_:A2 0.000000
22 u_stuffer\/_06_ u_stuffer\/_21_:A2 0.000000
23 u_stuffer\/_06_ u_stuffer\/_20_:A2 0.000000
24 u_stuffer\/_06_ u_stuffer\/_19_:ZN 0.000000
*END

*D_NET u_stuffer\/_07_ 4.317803
*CONN
*P u_stuffer\/_07_ B
*I u_stuffer\/_29_:A2 B
*I u_stuffer\/_26_:A2 B
*I u_stuffer\/_21_:ZN B
*CAP
1 u_stuffer\/_07_ 4.276026
2 u_stuffer\/_07_ u_stuffer\/_11_ 0.006236
3 u_stuffer\/_07_ u_stuffer\/_12_ 0.016699
4 u_stuffer\/_07_ u_stuffer\/ones[1] 0.009917
5 u_stuffer\/_07_ u_stuffer\/ones[2] 0.008925
*RES
1 u_stuffer\/_07_ u_stuffer\/_07_:2 67.308400
2 u_stuffer\/_07_ u_stuffer\/_07_:3 55.700400
3 u_stuffer\/_07_ u_stuffer\/_07_:4 22.271000
4 u_stuffer\/_07_ u_stuffer\/_07_:5 8.782900
5 u_stuffer\/_07_ u_stuffer\/_07_:6 25.381600
6 u_stuffer\/_07_ u_stuffer\/_07_:7 16.423400
7 u_stuffer\/_07_ u_stuffer\/_07_:8 25.313400
8 u_stuffer\/_07_ u_stuffer\/_07_:9 37.857700
9 u_stuffer\/_07_ u_stuffer\/_07_:10 36.174100
10 u_stuffer\/_07_ u_stuffer\/_29_:A2 0.000000
11 u_stuffer\/_07_ u_stuffer\/_26_:A2 0.000000
12 u_stuffer\/_07_ u_stuffer\/_21_:ZN 0.000000
*END

*D_NET u_stuffer\/_08_ 4.054629
*CONN
*P u_stuffer\/_08_ B
*I u_stuffer\/_23_:A2 B
*I u_stuffer\/_22_:ZN B
*CAP
1 u_stuffer\/_08_ 4.024053
2 u_stuffer\/_08_ u_stuffer\/_11_ 0.011404
3 u_stuffer\/_08_ u_stuffer\/ones[0] 0.005289
4 u_stuffer\/_08_ u_stuffer\/ones[1] 0.013883
*RES
1 u_stuffer\/_08_ u_stuffer\/_08_:2 18.512200
2 u_stuffer\/_08_ u_stuffer\/_08_:3 16.332300
3 u_stuffer\/_08_ u_stuffer\/_08_:4 25.051700
4 u_stuffer\/_08_ u_stuffer\/_08_:5 23.319500
5 u_stuffer\/_08_ u_stuffer\/_08_:6 10.108900
6 u_stuffer\/_08_ u_stuffer\/_08_:7 8.883100
7 u_stuffer\/_08_ u_stuffer\/_08_:8 10.457000
8 u_stuffer\/_08_ u_stuffer\/_08_:9 7.831800
9 u_stuffer\/_08_ u_stuffer\/_08_:10 5.037100
10 u_stuffer\/_08_ u_stuffer\/_08_:11 11.574700
11 u_stuffer\/_08_ u_stuffer\/_08_:12 9.156100
12 u_stuffer\/_08_ u_stuffer\/_08_:13 9.349500
13 u_stuffer\/_08_ u_stuffer\/_08_:14 3.484800
14 u_stuffer\/_08_ u_stuffer\/_08_:15 6.019000
15 u_stuffer\/_08_ u_stuffer\/_08_:16 13.386200
16 u_stuffer\/_08_ u_stuffer\/_08_:17 12.029700
17 u_stuffer\/_08_ u_stuffer\/_23_:A2 0.000000
18 u_stuffer\/_08_ u_stuffer\/_22_:ZN 0.000000
*END

*D_NET u_stuffer\/_09_ 2.299313
*CONN
*P u_stuffer\/_09_ B
*I u_stuffer\/_26_:B B
*I u_stuffer\/_23_:Z B
*CAP
1 u_stuffer\/_09_ 2.295512
2 u_stuffer\/_09_ u_stuffer\/_11_ 0.003801
*RES
1 u_stuffer\/_09_ u_stuffer\/_09_:2 12.550500
2 u_stuffer\/_09_ u_stuffer\/_09_:3 33.489400
3 u_stuffer\/_09_ u_stuffer\/_09_:4 37.956900
4 u_stuffer\/_09_ u_stuffer\/_09_:5 51.301900
5 u_stuffer\/_09_ u_stuffer\/_09_:6 26.834400
6 u_stuffer\/_09_ u_stuffer\/_09_:7 43.966000
7 u_stuffer\/_09_ u_stuffer\/_09_:8 39.281700
8 u_stuffer\/_09_ u_stuffer\/_09_:9 19.103300
9 u_stuffer\/_09_ u_stuffer\/_26_:B 0.000000
10 u_stuffer\/_09_ u_stuffer\/_23_:Z 0.000000
*END

*D_NET u_stuffer\/_10_ 4.568844
*CONN
*P u_stuffer\/_10_ B
*I u_stuffer\/_30_:C B
*I u_stuffer\/_25_:A1 B
*I u_stuffer\/_24_:ZN B
*CAP
1 u_stuffer\/_10_ 4.545851
2 u_stuffer\/_10_ u_stuffer\/_11_ 0.003801
3 u_stuffer\/_10_ u_stuffer\/_14_ 0.009937
4 u_stuffer\/_10_ u_stuffer\/ones[0] 0.009255
*RES
1 u_stuffer\/_10_ u_stuffer\/_10_:2 40.432300
2 u_stuffer\/_10_ u_stuffer\/_10_:3 6.222900
3 u_stuffer\/_10_ u_stuffer\/_10_:4 2.446600
4 u_stuffer\/_10_ u_stuffer\/_10_:5 12.789800
5 u_stuffer\/_10_ u_stuffer\/_10_:6 44.666300
6 u_stuffer\/_10_ u_stuffer\/_10_:7 14.125500
7 u_stuffer\/_10_ u_stuffer\/_10_:8 42.647600
8 u_stuffer\/_10_ u_stuffer\/_10_:9 38.609300
9 u_stuffer\/_10_ u_stuffer\/_10_:10 39.818300
10 u_stuffer\/_10_ u_stuffer\/_10_:11 35.377200
11 u_stuffer\/_10_ u_stuffer\/_10_:12 43.284500
12 u_stuffer\/_10_ u_stuffer\/_10_:13 39.260700
13 u_stuffer\/_10_ u_stuffer\/_30_:C 0.000000
14 u_stuffer\/_10_ u_stuffer\/_25_:A1 0.000000
15 u_stuffer\/_10_ u_stuffer\/_24_:ZN 0.000000
*END

*D_NET u_stuffer\/_11_ 11.362765
*CONN
*P u_stuffer\/_11_ B
*I u_stuffer\/_38_:A2 B
*I u_stuffer\/_37_:A3 B
*I u_stuffer\/_36_:B2 B
*I u_stuffer\/_29_:C B
*I u_stuffer\/_26_:C B
*I u_stuffer\/_25_:ZN B
*CAP
1 u_stuffer\/_11_ 11.297811
2 u_stuffer\/_11_ u_stuffer\/_14_ 0.004628
3 u_stuffer\/_11_ u_stuffer\/_17_ 0.018511
4 u_stuffer\/_11_ u_stuffer\/ones[0] 0.019172
5 u_stuffer\/_11_ u_stuffer\/ones[1] 0.013718
6 u_stuffer\/_11_ u_stuffer\/ones[2] 0.008925
*RES
1 u_stuffer\/_11_ u_stuffer\/_11_:2 54.650400
2 u_stuffer\/_11_ u_stuffer\/_11_:3 48.446200
3 u_stuffer\/_11_ u_stuffer\/_11_:4 29.991800
4 u_stuffer\/_11_ u_stuffer\/_11_:5 21.187200
5 u_stuffer\/_11_ u_stuffer\/_11_:6 22.752800
6 u_stuffer\/_11_ u_stuffer\/_11_:7 39.559500
7 u_stuffer\/_11_ u_stuffer\/_11_:8 29.712800
8 u_stuffer\/_11_ u_stuffer\/_11_:9 28.928100
9 u_stuffer\/_11_ u_stuffer\/_11_:10 40.039500
10 u_stuffer\/_11_ u_stuffer\/_11_:11 37.857800
11 u_stuffer\/_11_ u_stuffer\/_11_:12 25.192300
12 u_stuffer\/_11_ u_stuffer\/_11_:13 37.346200
13 u_stuffer\/_11_ u_stuffer\/_11_:14 34.946200
14 u_stuffer\/_11_ u_stuffer\/_11_:15 36.457600
15 u_stuffer\/_11_ u_stuffer\/_11_:16 33.260300
16 u_stuffer\/_11_ u_stuffer\/_11_:17 35.079800
17 u_stuffer\/_11_ u_stuffer\/_11_:18 31.677700
18 u_stuffer\/_11_ u_stuffer\/_11_:19 29.444000
19 u_stuffer\/_11_ u_stuffer\/_11_:20 36.955700
20 u_stuffer\/_11_ u_stuffer\/_11_:21 31.507100
21 u_stuffer\/_11_ u_stuffer\/_38_:A2 0.000000
22 u_stuffer\/_11_ u_stuffer\/_37_:A3 0.000000
23 u_stuffer\/_11_ u_stuffer\/_36_:B2 0.000000
24 u_stuffer\/_11_ u_stuffer\/_29_:C 0.000000
25 u_stuffer\/_11_ u_stuffer\/_26_:C 0.000000
26 u_stuffer\/_11_ u_stuffer\/_25_:ZN 0.000000
*END

*D_NET u_stuffer\/_12_ 2.767801
*CONN
*P u_stuffer\/_12_ B
*I u_stuffer\/_29_:B1 B
*I u_stuffer\/_27_:ZN B
*CAP
1 u_stuffer\/_12_ 2.757750
2 u_stuffer\/_12_ u_stuffer\/_13_ 0.000134
3 u_stuffer\/_12_ u_stuffer\/ones[1] 0.009917
*RES
1 u_stuffer\/_12_ u_stuffer\/_12_:2 20.586600
2 u_stuffer\/_12_ u_stuffer\/_12_:3 27.031900
3 u_stuffer\/_12_ u_stuffer\/_12_:4 16.947200
4 u_stuffer\/_12_ u_stuffer\/_12_:5 10.861600
5 u_stuffer\/_12_ u_stuffer\/_12_:6 10.166300
6 u_stuffer\/_12_ u_stuffer\/_12_:7 10.233800
7 u_stuffer\/_12_ u_stuffer\/_29_:B1 0.000000
8 u_stuffer\/_12_ u_stuffer\/_27_:ZN 0.000000
*END

*D_NET u_stuffer\/_13_ 1.889684
*CONN
*P u_stuffer\/_13_ B
*I u_stuffer\/_29_:B2 B
*I u_stuffer\/_28_:ZN B
*CAP
1 u_stuffer\/_13_ 1.879574
2 u_stuffer\/_13_ u_stuffer\/ones[1] 0.010110
*RES
1 u_stuffer\/_13_ u_stuffer\/_13_:2 16.154600
2 u_stuffer\/_13_ u_stuffer\/_13_:3 15.670200
3 u_stuffer\/_13_ u_stuffer\/_13_:4 26.357900
4 u_stuffer\/_13_ u_stuffer\/_13_:5 26.838100
5 u_stuffer\/_13_ u_stuffer\/_29_:B2 0.000000
6 u_stuffer\/_13_ u_stuffer\/_28_:ZN 0.000000
*END

*D_NET u_stuffer\/_14_ 4.245521
*CONN
*P u_stuffer\/_14_ B
*I u_stuffer\/_36_:A1 B
*I u_stuffer\/_32_:B B
*I u_stuffer\/_30_:ZN B
*CAP
1 u_stuffer\/_14_ 4.223043
2 u_stuffer\/_14_ u_stuffer\/_17_ 0.004628
3 u_stuffer\/_14_ u_stuffer\/ones[0] 0.017850
*RES
1 u_stuffer\/_14_ u_stuffer\/_14_:2 35.953500
2 u_stuffer\/_14_ u_stuffer\/_14_:3 17.553300
3 u_stuffer\/_14_ u_stuffer\/_14_:4 28.090000
4 u_stuffer\/_14_ u_stuffer\/_14_:5 25.047800
5 u_stuffer\/_14_ u_stuffer\/_14_:6 7.017300
6 u_stuffer\/_14_ u_stuffer\/_14_:7 2.957200
7 u_stuffer\/_14_ u_stuffer\/_14_:8 14.202700
8 u_stuffer\/_14_ u_stuffer\/_14_:9 11.460400
9 u_stuffer\/_14_ u_stuffer\/_14_:10 8.973000
10 u_stuffer\/_14_ u_stuffer\/_14_:11 4.597100
11 u_stuffer\/_14_ u_stuffer\/_14_:12 10.799600
12 u_stuffer\/_14_ u_stuffer\/_14_:13 7.556200
13 u_stuffer\/_14_ u_stuffer\/_14_:14 8.897600
14 u_stuffer\/_14_ u_stuffer\/_14_:15 6.573000
15 u_stuffer\/_14_ u_stuffer\/_36_:A1 0.000000
16 u_stuffer\/_14_ u_stuffer\/_32_:B 0.000000
17 u_stuffer\/_14_ u_stuffer\/_30_:ZN 0.000000
*END

*D_NET u_stuffer\/_15_ 1.301234
*CONN
*P u_stuffer\/_15_ B
*I u_stuffer\/_32_:C B
*I u_stuffer\/_31_:ZN B
*CAP
1 u_stuffer\/_15_ 1.301234
*RES
1 u_stuffer\/_15_ u_stuffer\/_15_:2 17.380200
2 u_stuffer\/_15_ u_stuffer\/_15_:3 17.649100
3 u_stuffer\/_15_ u_stuffer\/_15_:4 11.357700
4 u_stuffer\/_15_ u_stuffer\/_15_:5 17.130500
5 u_stuffer\/_15_ u_stuffer\/_15_:6 11.434100
6 u_stuffer\/_15_ u_stuffer\/_15_:7 9.002600
7 u_stuffer\/_15_ u_stuffer\/_32_:C 0.000000
8 u_stuffer\/_15_ u_stuffer\/_31_:ZN 0.000000
*END

*D_NET u_stuffer\/_16_ 1.810196
*CONN
*P u_stuffer\/_16_ B
*I u_stuffer\/_36_:A2 B
*I u_stuffer\/_33_:ZN B
*CAP
1 u_stuffer\/_16_ 1.809370
2 u_stuffer\/_16_ u_stuffer\/_17_ 0.000826
*RES
1 u_stuffer\/_16_ u_stuffer\/_16_:2 25.170200
2 u_stuffer\/_16_ u_stuffer\/_16_:3 17.271500
3 u_stuffer\/_16_ u_stuffer\/_16_:4 20.848500
4 u_stuffer\/_16_ u_stuffer\/_16_:5 8.844200
5 u_stuffer\/_16_ u_stuffer\/_16_:6 13.003100
6 u_stuffer\/_16_ u_stuffer\/_36_:A2 0.000000
7 u_stuffer\/_16_ u_stuffer\/_33_:ZN 0.000000
*END

*D_NET u_stuffer\/_17_ 5.123822
*CONN
*P u_stuffer\/_17_ B
*I u_stuffer\/_38_:A1 B
*I u_stuffer\/_37_:A1 B
*I u_stuffer\/_35_:A2 B
*I u_stuffer\/_34_:ZN B
*CAP
1 u_stuffer\/_17_ 5.095230
2 u_stuffer\/_17_ u_stuffer\/_18_ 0.000826
3 u_stuffer\/_17_ u_stuffer\/ones[0] 0.027766
*RES
1 u_stuffer\/_17_ u_stuffer\/_17_:2 51.856200
2 u_stuffer\/_17_ u_stuffer\/_17_:3 48.061600
3 u_stuffer\/_17_ u_stuffer\/_17_:4 40.315200
4 u_stuffer\/_17_ u_stuffer\/_17_:5 36.978600
5 u_stuffer\/_17_ u_stuffer\/_17_:6 17.087800
6 u_stuffer\/_17_ u_stuffer\/_17_:7 40.463500
7 u_stuffer\/_17_ u_stuffer\/_17_:8 18.413500
8 u_stuffer\/_17_ u_stuffer\/_17_:9 36.837400
9 u_stuffer\/_17_ u_stuffer\/_17_:10 33.152600
10 u_stuffer\/_17_ u_stuffer\/_17_:11 39.731800
11 u_stuffer\/_17_ u_stuffer\/_38_:A1 0.000000
12 u_stuffer\/_17_ u_stuffer\/_37_:A1 0.000000
13 u_stuffer\/_17_ u_stuffer\/_35_:A2 0.000000
14 u_stuffer\/_17_ u_stuffer\/_34_:ZN 0.000000
*END

*D_NET u_stuffer\/_18_ 1.391960
*CONN
*P u_stuffer\/_18_ B
*I u_stuffer\/_36_:B1 B
*I u_stuffer\/_35_:ZN B
*CAP
1 u_stuffer\/_18_ 1.391960
*RES
1 u_stuffer\/_18_ u_stuffer\/_18_:2 29.266400
2 u_stuffer\/_18_ u_stuffer\/_18_:3 11.215000
3 u_stuffer\/_18_ u_stuffer\/_18_:4 25.096000
4 u_stuffer\/_18_ u_stuffer\/_18_:5 10.187700
5 u_stuffer\/_18_ u_stuffer\/_18_:6 7.135800
6 u_stuffer\/_18_ u_stuffer\/_36_:B1 0.000000
7 u_stuffer\/_18_ u_stuffer\/_35_:ZN 0.000000
*END

*D_NET u_stuffer\/ones\[0\] 11.244068
*CONN
*P u_stuffer\/ones\[0\] B
*I u_stuffer\/_39_:Q B
*I u_stuffer\/_32_:A2 B
*I u_stuffer\/_31_:B B
*I u_stuffer\/_30_:A1 B
*I u_stuffer\/_27_:A2 B
*I u_stuffer\/_22_:A2 B
*I u_stuffer\/_20_:A1 B
*CAP
1 u_stuffer\/ones[0] 11.244068
*RES
1 u_stuffer\/ones[0] u_stuffer\/ones\[0\]:2 45.095200
2 u_stuffer\/ones[0] u_stuffer\/ones\[0\]:3 42.131600
3 u_stuffer\/ones[0] u_stuffer\/ones\[0\]:4 34.256100
4 u_stuffer\/ones[0] u_stuffer\/ones\[0\]:5 37.448200
5 u_stuffer\/ones[0] u_stuffer\/ones\[0\]:6 36.426200
6 u_stuffer\/ones[0] u_stuffer\/ones\[0\]:7 42.663000
7 u_stuffer\/ones[0] u_stuffer\/ones\[0\]:8 53.386700
8 u_stuffer\/ones[0] u_stuffer\/ones\[0\]:9 23.166400
9 u_stuffer\/ones[0] u_stuffer\/ones\[0\]:10 15.861200
10 u_stuffer\/ones[0] u_stuffer\/ones\[0\]:11 48.851300
11 u_stuffer\/ones[0] u_stuffer\/ones\[0\]:12 44.347400
12 u_stuffer\/ones[0] u_stuffer\/ones\[0\]:13 51.742200
13 u_stuffer\/ones[0] u_stuffer\/ones\[0\]:14 47.513100
14 u_stuffer\/ones[0] u_stuffer\/ones\[0\]:15 39.263700
15 u_stuffer\/ones[0] u_stuffer\/ones\[0\]:16 28.787400
16 u_stuffer\/ones[0] u_stuffer\/ones\[0\]:17 43.440300
17 u_stuffer\/ones[0] u_stuffer\/ones\[0\]:18 26.338100
18 u_stuffer\/ones[0] u_stuffer\/ones\[0\]:19 47.915600
19 u_stuffer\/ones[0] u_stuffer\/ones\[0\]:20 69.666900
20 u_stuffer\/ones[0] u_stuffer\/ones\[0\]:21 51.280400
21 u_stuffer\/ones[0] u_stuffer\/ones\[0\]:22 53.832300
22 u_stuffer\/ones[0] u_stuffer\/ones\[0\]:23 60.418600
23 u_stuffer\/ones[0] u_stuffer\/_39_:Q 0.000000
24 u_stuffer\/ones[0] u_stuffer\/_32_:A2 0.000000
25 u_stuffer\/ones[0] u_stuffer\/_31_:B 0.000000
26 u_stuffer\/ones[0] u_stuffer\/_30_:A1 0.000000
27 u_stuffer\/ones[0] u_stuffer\/_27_:A2 0.000000
28 u_stuffer\/ones[0] u_stuffer\/_22_:A2 0.000000
29 u_stuffer\/ones[0] u_stuffer\/_20_:A1 0.000000
*END

*D_NET u_stuffer\/ones\[1\] 7.215608
*CONN
*P u_stuffer\/ones\[1\] B
*I u_stuffer\/_40_:Q B
*I u_stuffer\/_27_:A3 B
*I u_stuffer\/_23_:A1 B
*I u_stuffer\/_19_:A2 B
*CAP
1 u_stuffer\/ones[1] 7.210319
2 u_stuffer\/ones[1] u_stuffer\/ones[2] 0.005289
*RES
1 u_stuffer\/ones[1] u_stuffer\/ones\[1\]:2 32.413400
2 u_stuffer\/ones[1] u_stuffer\/ones\[1\]:3 25.122700
3 u_stuffer\/ones[1] u_stuffer\/ones\[1\]:4 26.300000
4 u_stuffer\/ones[1] u_stuffer\/ones\[1\]:5 32.470500
5 u_stuffer\/ones[1] u_stuffer\/ones\[1\]:6 37.667400
6 u_stuffer\/ones[1] u_stuffer\/ones\[1\]:7 33.160800
7 u_stuffer\/ones[1] u_stuffer\/ones\[1\]:8 47.825400
8 u_stuffer\/ones[1] u_stuffer\/ones\[1\]:9 42.931600
9 u_stuffer\/ones[1] u_stuffer\/ones\[1\]:10 44.982300
10 u_stuffer\/ones[1] u_stuffer\/ones\[1\]:11 37.998100
11 u_stuffer\/ones[1] u_stuffer\/ones\[1\]:12 52.431300
12 u_stuffer\/ones[1] u_stuffer\/ones\[1\]:13 22.687100
13 u_stuffer\/ones[1] u_stuffer\/ones\[1\]:14 83.543600
14 u_stuffer\/ones[1] u_stuffer\/ones\[1\]:15 11.219300
15 u_stuffer\/ones[1] u_stuffer\/ones\[1\]:16 56.789300
16 u_stuffer\/ones[1] u_stuffer\/ones\[1\]:17 81.293300
17 u_stuffer\/ones[1] u_stuffer\/_40_:Q 0.000000
18 u_stuffer\/ones[1] u_stuffer\/_27_:A3 0.000000
19 u_stuffer\/ones[1] u_stuffer\/_23_:A1 0.000000
20 u_stuffer\/ones[1] u_stuffer\/_19_:A2 0.000000
*END

*D_NET u_stuffer\/ones\[2\] 4.477570
*CONN
*P u_stuffer\/ones\[2\] B
*I u_stuffer\/_41_:Q B
*I u_stuffer\/_28_:I B
*I u_stuffer\/_19_:A1 B
*CAP
1 u_stuffer\/ones[2] 4.477570
*RES
1 u_stuffer\/ones[2] u_stuffer\/ones\[2\]:2 22.682100
2 u_stuffer\/ones[2] u_stuffer\/ones\[2\]:3 29.266800
3 u_stuffer\/ones[2] u_stuffer\/ones\[2\]:4 24.112600
4 u_stuffer\/ones[2] u_stuffer\/ones\[2\]:5 15.309900
5 u_stuffer\/ones[2] u_stuffer\/ones\[2\]:6 12.979400
6 u_stuffer\/ones[2] u_stuffer\/ones\[2\]:7 21.715000
7 u_stuffer\/ones[2] u_stuffer\/ones\[2\]:8 31.121900
8 u_stuffer\/ones[2] u_stuffer\/ones\[2\]:9 24.238900
9 u_stuffer\/ones[2] u_stuffer\/ones\[2\]:10 41.198900
10 u_stuffer\/ones[2] u_stuffer\/ones\[2\]:11 62.751900
11 u_stuffer\/ones[2] u_stuffer\/ones\[2\]:12 94.172100
12 u_stuffer\/ones[2] u_stuffer\/ones\[2\]:13 69.727400
13 u_stuffer\/ones[2] u_stuffer\/_41_:Q 0.000000
14 u_stuffer\/ones[2] u_stuffer\/_28_:I 0.000000
15 u_stuffer\/ones[2] u_stuffer\/_19_:A1 0.000000
*END

*D_NET u_sync_detector\/_00_ 2.381141
*CONN
*P u_sync_detector\/_00_ B
*I u_sync_detector\/_37_:D B
*I u_sync_detector\/_24_:ZN B
*CAP
1 u_sync_detector\/_00_ 2.363259
2 u_sync_detector\/_00_ u_sync_detector\/_08_ 0.004628
3 u_sync_detector\/_00_ u_sync_detector\/_09_ 0.009453
4 u_sync_detector\/_00_ u_sync_detector\/_11_ 0.003801
*RES
1 u_sync_detector\/_00_ u_sync_detector\/_00_:2 12.345600
2 u_sync_detector\/_00_ u_sync_detector\/_00_:3 18.284300
3 u_sync_detector\/_00_ u_sync_detector\/_00_:4 10.974700
4 u_sync_detector\/_00_ u_sync_detector\/_00_:5 9.961600
5 u_sync_detector\/_00_ u_sync_detector\/_00_:6 3.919100
6 u_sync_detector\/_00_ u_sync_detector\/_00_:7 3.334300
7 u_sync_detector\/_00_ u_sync_detector\/_00_:8 6.179800
8 u_sync_detector\/_00_ u_sync_detector\/_00_:9 8.357600
9 u_sync_detector\/_00_ u_sync_detector\/_00_:10 6.514000
10 u_sync_detector\/_00_ u_sync_detector\/_00_:11 7.558000
11 u_sync_detector\/_00_ u_sync_detector\/_37_:D 0.000000
12 u_sync_detector\/_00_ u_sync_detector\/_24_:ZN 0.000000
*END

*D_NET u_sync_detector\/_01_ 2.495348
*CONN
*P u_sync_detector\/_01_ B
*I u_sync_detector\/_36_:D B
*I u_sync_detector\/_26_:ZN B
*CAP
1 u_sync_detector\/_01_ 2.473305
2 u_sync_detector\/_01_ u_sync_detector\/_09_ 0.003801
3 u_sync_detector\/_01_ u_sync_detector\/_10_ 0.010640
4 u_sync_detector\/_01_ u_sync_detector\/_11_ 0.003801
5 u_sync_detector\/_01_ u_sync_detector\/match[2] 0.003801
*RES
1 u_sync_detector\/_01_ u_sync_detector\/_01_:2 15.162100
2 u_sync_detector\/_01_ u_sync_detector\/_01_:3 19.309400
3 u_sync_detector\/_01_ u_sync_detector\/_01_:4 7.117300
4 u_sync_detector\/_01_ u_sync_detector\/_01_:5 11.494700
5 u_sync_detector\/_01_ u_sync_detector\/_01_:6 3.029300
6 u_sync_detector\/_01_ u_sync_detector\/_01_:7 5.046900
7 u_sync_detector\/_01_ u_sync_detector\/_01_:8 6.799200
8 u_sync_detector\/_01_ u_sync_detector\/_01_:9 5.604400
9 u_sync_detector\/_01_ u_sync_detector\/_01_:10 8.960700
10 u_sync_detector\/_01_ u_sync_detector\/_01_:11 5.471200
11 u_sync_detector\/_01_ u_sync_detector\/_36_:D 0.000000
12 u_sync_detector\/_01_ u_sync_detector\/_26_:ZN 0.000000
*END

*D_NET u_sync_detector\/_02_ 2.291894
*CONN
*P u_sync_detector\/_02_ B
*I u_sync_detector\/_35_:D B
*I u_sync_detector\/_29_:ZN B
*CAP
1 u_sync_detector\/_02_ 2.263103
2 u_sync_detector\/_02_ u_sync_detector\/_09_ 0.008429
3 u_sync_detector\/_02_ u_sync_detector\/_10_ 0.010280
4 u_sync_detector\/_02_ u_sync_detector\/match[0] 0.004628
5 u_sync_detector\/_02_ u_sync_detector\/match[1] 0.004628
6 u_sync_detector\/_02_ u_sync_detector\/match[2] 0.000826
*RES
1 u_sync_detector\/_02_ u_sync_detector\/_02_:2 13.233900
2 u_sync_detector\/_02_ u_sync_detector\/_02_:3 21.587200
3 u_sync_detector\/_02_ u_sync_detector\/_02_:4 21.431000
4 u_sync_detector\/_02_ u_sync_detector\/_02_:5 12.795100
5 u_sync_detector\/_02_ u_sync_detector\/_02_:6 7.936400
6 u_sync_detector\/_02_ u_sync_detector\/_02_:7 10.349400
7 u_sync_detector\/_02_ u_sync_detector\/_35_:D 0.000000
8 u_sync_detector\/_02_ u_sync_detector\/_29_:ZN 0.000000
*END

*D_NET u_sync_detector\/_03_ 3.024347
*CONN
*P u_sync_detector\/_03_ B
*I u_sync_detector\/_34_:D B
*I u_sync_detector\/_31_:ZN B
*CAP
1 u_sync_detector\/_03_ 3.015091
2 u_sync_detector\/_03_ u_sync_detector\/_13_ 0.004628
3 u_sync_detector\/_03_ u_sync_detector\/match[0] 0.004628
*RES
1 u_sync_detector\/_03_ u_sync_detector\/_03_:2 23.532100
2 u_sync_detector\/_03_ u_sync_detector\/_03_:3 21.734800
3 u_sync_detector\/_03_ u_sync_detector\/_03_:4 12.739100
4 u_sync_detector\/_03_ u_sync_detector\/_03_:5 7.061600
5 u_sync_detector\/_03_ u_sync_detector\/_03_:6 5.440400
6 u_sync_detector\/_03_ u_sync_detector\/_03_:7 9.355800
7 u_sync_detector\/_03_ u_sync_detector\/_03_:8 11.209200
8 u_sync_detector\/_03_ u_sync_detector\/_34_:D 0.000000
9 u_sync_detector\/_03_ u_sync_detector\/_31_:ZN 0.000000
*END

*D_NET u_sync_detector\/_04_ 1.831704
*CONN
*P u_sync_detector\/_04_ B
*I u_sync_detector\/_33_:D B
*I u_sync_detector\/_32_:Z B
*CAP
1 u_sync_detector\/_04_ 1.831704
*RES
1 u_sync_detector\/_04_ u_sync_detector\/_04_:2 23.243000
2 u_sync_detector\/_04_ u_sync_detector\/_04_:3 19.011300
3 u_sync_detector\/_04_ u_sync_detector\/_04_:4 13.491300
4 u_sync_detector\/_04_ u_sync_detector\/_04_:5 13.601600
5 u_sync_detector\/_04_ u_sync_detector\/_04_:6 7.582300
6 u_sync_detector\/_04_ u_sync_detector\/_04_:7 7.873500
7 u_sync_detector\/_04_ u_sync_detector\/_33_:D 0.000000
8 u_sync_detector\/_04_ u_sync_detector\/_32_:Z 0.000000
*END

*D_NET u_sync_detector\/_05_ 3.836085
*CONN
*P u_sync_detector\/_05_ B
*I u_sync_detector\/_19_:A2 B
*I u_sync_detector\/_16_:ZN B
*CAP
1 u_sync_detector\/_05_ 3.832284
2 u_sync_detector\/_05_ u_sync_detector\/match[3] 0.003801
*RES
1 u_sync_detector\/_05_ u_sync_detector\/_05_:2 55.775600
2 u_sync_detector\/_05_ u_sync_detector\/_05_:3 49.738400
3 u_sync_detector\/_05_ u_sync_detector\/_05_:4 9.432000
4 u_sync_detector\/_05_ u_sync_detector\/_05_:5 56.116800
5 u_sync_detector\/_05_ u_sync_detector\/_05_:6 27.911800
6 u_sync_detector\/_05_ u_sync_detector\/_05_:7 27.950000
7 u_sync_detector\/_05_ u_sync_detector\/_05_:8 9.508400
8 u_sync_detector\/_05_ u_sync_detector\/_05_:9 49.581200
9 u_sync_detector\/_05_ u_sync_detector\/_05_:10 27.962000
10 u_sync_detector\/_05_ u_sync_detector\/_05_:11 54.807800
11 u_sync_detector\/_05_ u_sync_detector\/_19_:A2 0.000000
12 u_sync_detector\/_05_ u_sync_detector\/_16_:ZN 0.000000
*END

*D_NET u_sync_detector\/_06_ 6.766267
*CONN
*P u_sync_detector\/_06_ B
*I u_sync_detector\/_31_:A1 B
*I u_sync_detector\/_19_:A3 B
*I u_sync_detector\/_17_:ZN B
*CAP
1 u_sync_detector\/_06_ 6.721927
2 u_sync_detector\/_06_ u_sync_detector\/_07_ 0.003801
3 u_sync_detector\/_06_ u_sync_detector\/_09_ 0.015731
4 u_sync_detector\/_06_ u_sync_detector\/_13_ 0.009072
5 u_sync_detector\/_06_ u_sync_detector\/_15_ 0.003801
6 u_sync_detector\/_06_ u_sync_detector\/match[0] 0.003801
7 u_sync_detector\/_06_ u_sync_detector\/match[2] 0.008134
*RES
1 u_sync_detector\/_06_ u_sync_detector\/_06_:2 25.959100
2 u_sync_detector\/_06_ u_sync_detector\/_06_:3 29.339200
3 u_sync_detector\/_06_ u_sync_detector\/_06_:4 26.771600
4 u_sync_detector\/_06_ u_sync_detector\/_06_:5 30.057600
5 u_sync_detector\/_06_ u_sync_detector\/_06_:6 39.099000
6 u_sync_detector\/_06_ u_sync_detector\/_06_:7 38.547200
7 u_sync_detector\/_06_ u_sync_detector\/_06_:8 21.020300
8 u_sync_detector\/_06_ u_sync_detector\/_06_:9 17.990800
9 u_sync_detector\/_06_ u_sync_detector\/_06_:10 16.892700
10 u_sync_detector\/_06_ u_sync_detector\/_06_:11 24.825500
11 u_sync_detector\/_06_ u_sync_detector\/_06_:12 2.416700
12 u_sync_detector\/_06_ u_sync_detector\/_06_:13 2.265800
13 u_sync_detector\/_06_ u_sync_detector\/_06_:14 12.851600
14 u_sync_detector\/_06_ u_sync_detector\/_06_:15 18.382900
15 u_sync_detector\/_06_ u_sync_detector\/_06_:16 7.632700
16 u_sync_detector\/_06_ u_sync_detector\/_06_:17 4.852600
17 u_sync_detector\/_06_ u_sync_detector\/_06_:18 21.286000
18 u_sync_detector\/_06_ u_sync_detector\/_06_:19 23.932500
19 u_sync_detector\/_06_ u_sync_detector\/_06_:20 15.743000
20 u_sync_detector\/_06_ u_sync_detector\/_06_:21 9.355500
21 u_sync_detector\/_06_ u_sync_detector\/_06_:22 29.490200
22 u_sync_detector\/_06_ u_sync_detector\/_06_:23 26.840500
23 u_sync_detector\/_06_ u_sync_detector\/_06_:24 10.230400
24 u_sync_detector\/_06_ u_sync_detector\/_06_:25 6.056300
25 u_sync_detector\/_06_ u_sync_detector\/_06_:26 6.052000
26 u_sync_detector\/_06_ u_sync_detector\/_06_:27 7.319500
27 u_sync_detector\/_06_ u_sync_detector\/_31_:A1 0.000000
28 u_sync_detector\/_06_ u_sync_detector\/_19_:A3 0.000000
29 u_sync_detector\/_06_ u_sync_detector\/_17_:ZN 0.000000
*END

*D_NET u_sync_detector\/_07_ 8.018970
*CONN
*P u_sync_detector\/_07_ B
*I u_sync_detector\/_21_:A3 B
*I u_sync_detector\/_19_:A4 B
*I u_sync_detector\/_18_:ZN B
*CAP
1 u_sync_detector\/_07_ 8.013132
2 u_sync_detector\/_07_ u_sync_detector\/_09_ 0.005838
*RES
1 u_sync_detector\/_07_ u_sync_detector\/_07_:2 11.049800
2 u_sync_detector\/_07_ u_sync_detector\/_07_:3 10.035400
3 u_sync_detector\/_07_ u_sync_detector\/_07_:4 46.721600
4 u_sync_detector\/_07_ u_sync_detector\/_07_:5 43.599500
5 u_sync_detector\/_07_ u_sync_detector\/_07_:6 31.510700
6 u_sync_detector\/_07_ u_sync_detector\/_07_:7 35.605700
7 u_sync_detector\/_07_ u_sync_detector\/_07_:8 33.715600
8 u_sync_detector\/_07_ u_sync_detector\/_07_:9 31.968700
9 u_sync_detector\/_07_ u_sync_detector\/_07_:10 43.910400
10 u_sync_detector\/_07_ u_sync_detector\/_07_:11 45.277100
11 u_sync_detector\/_07_ u_sync_detector\/_07_:12 13.735700
12 u_sync_detector\/_07_ u_sync_detector\/_07_:13 12.933700
13 u_sync_detector\/_07_ u_sync_detector\/_07_:14 6.006800
14 u_sync_detector\/_07_ u_sync_detector\/_07_:15 15.444100
15 u_sync_detector\/_07_ u_sync_detector\/_07_:16 10.131800
16 u_sync_detector\/_07_ u_sync_detector\/_07_:17 17.466900
17 u_sync_detector\/_07_ u_sync_detector\/_07_:18 21.380700
18 u_sync_detector\/_07_ u_sync_detector\/_07_:19 19.614500
19 u_sync_detector\/_07_ u_sync_detector\/_07_:20 21.244200
20 u_sync_detector\/_07_ u_sync_detector\/_07_:21 33.045300
21 u_sync_detector\/_07_ u_sync_detector\/_07_:22 31.548500
22 u_sync_detector\/_07_ u_sync_detector\/_07_:23 20.088700
23 u_sync_detector\/_07_ u_sync_detector\/_07_:24 20.016200
24 u_sync_detector\/_07_ u_sync_detector\/_07_:25 23.167500
25 u_sync_detector\/_07_ u_sync_detector\/_07_:26 30.854500
26 u_sync_detector\/_07_ u_sync_detector\/_07_:27 31.793600
27 u_sync_detector\/_07_ u_sync_detector\/_07_:28 25.630000
28 u_sync_detector\/_07_ u_sync_detector\/_07_:29 23.355000
29 u_sync_detector\/_07_ u_sync_detector\/_21_:A3 0.000000
30 u_sync_detector\/_07_ u_sync_detector\/_19_:A4 0.000000
31 u_sync_detector\/_07_ u_sync_detector\/_18_:ZN 0.000000
*END

*D_NET u_sync_detector\/_08_ 2.056636
*CONN
*P u_sync_detector\/_08_ B
*I u_sync_detector\/_24_:A1 B
*I u_sync_detector\/_20_:ZN B
*CAP
1 u_sync_detector\/_08_ 2.055810
2 u_sync_detector\/_08_ u_sync_detector\/_09_ 0.000826
*RES
1 u_sync_detector\/_08_ u_sync_detector\/_08_:2 18.313600
2 u_sync_detector\/_08_ u_sync_detector\/_08_:3 26.656700
3 u_sync_detector\/_08_ u_sync_detector\/_08_:4 36.903500
4 u_sync_detector\/_08_ u_sync_detector\/_08_:5 37.574200
5 u_sync_detector\/_08_ u_sync_detector\/_08_:6 27.599400
6 u_sync_detector\/_08_ u_sync_detector\/_08_:7 19.660500
7 u_sync_detector\/_08_ u_sync_detector\/_24_:A1 0.000000
8 u_sync_detector\/_08_ u_sync_detector\/_20_:ZN 0.000000
*END

*D_NET u_sync_detector\/_09_ 10.291416
*CONN
*P u_sync_detector\/_09_ B
*I u_sync_detector\/_31_:C B
*I u_sync_detector\/_29_:A1 B
*I u_sync_detector\/_26_:A1 B
*I u_sync_detector\/_24_:A2 B
*I u_sync_detector\/_21_:ZN B
*CAP
1 u_sync_detector\/_09_ 10.252659
2 u_sync_detector\/_09_ u_sync_detector\/_10_ 0.009255
3 u_sync_detector\/_09_ u_sync_detector\/_11_ 0.005041
4 u_sync_detector\/_09_ u_sync_detector\/_12_ 0.003801
5 u_sync_detector\/_09_ u_sync_detector\/match[0] 0.004628
6 u_sync_detector\/_09_ u_sync_detector\/match[1] 0.003801
7 u_sync_detector\/_09_ u_sync_detector\/match[2] 0.004628
8 u_sync_detector\/_09_ u_sync_detector\/match[3] 0.007603
*RES
1 u_sync_detector\/_09_ u_sync_detector\/_09_:2 39.391300
2 u_sync_detector\/_09_ u_sync_detector\/_09_:3 30.578100
3 u_sync_detector\/_09_ u_sync_detector\/_09_:4 40.341800
4 u_sync_detector\/_09_ u_sync_detector\/_09_:5 41.694700
5 u_sync_detector\/_09_ u_sync_detector\/_09_:6 9.483800
6 u_sync_detector\/_09_ u_sync_detector\/_09_:7 7.776000
7 u_sync_detector\/_09_ u_sync_detector\/_09_:8 5.863100
8 u_sync_detector\/_09_ u_sync_detector\/_09_:9 2.243000
9 u_sync_detector\/_09_ u_sync_detector\/_09_:10 44.832900
10 u_sync_detector\/_09_ u_sync_detector\/_09_:11 46.054000
11 u_sync_detector\/_09_ u_sync_detector\/_09_:12 29.842100
12 u_sync_detector\/_09_ u_sync_detector\/_09_:13 43.533400
13 u_sync_detector\/_09_ u_sync_detector\/_09_:14 23.071500
14 u_sync_detector\/_09_ u_sync_detector\/_09_:15 21.090200
15 u_sync_detector\/_09_ u_sync_detector\/_09_:16 19.129300
16 u_sync_detector\/_09_ u_sync_detector\/_09_:17 7.810200
17 u_sync_detector\/_09_ u_sync_detector\/_09_:18 13.780900
18 u_sync_detector\/_09_ u_sync_detector\/_09_:19 10.474300
19 u_sync_detector\/_09_ u_sync_detector\/_09_:20 17.195600
20 u_sync_detector\/_09_ u_sync_detector\/_09_:21 12.000400
21 u_sync_detector\/_09_ u_sync_detector\/_09_:22 8.960400
22 u_sync_detector\/_09_ u_sync_detector\/_09_:23 6.932500
23 u_sync_detector\/_09_ u_sync_detector\/_09_:24 16.005000
24 u_sync_detector\/_09_ u_sync_detector\/_09_:25 6.616800
25 u_sync_detector\/_09_ u_sync_detector\/_09_:26 15.466900
26 u_sync_detector\/_09_ u_sync_detector\/_09_:27 22.224300
27 u_sync_detector\/_09_ u_sync_detector\/_09_:28 20.150400
28 u_sync_detector\/_09_ u_sync_detector\/_09_:29 18.077200
29 u_sync_detector\/_09_ u_sync_detector\/_31_:C 0.000000
30 u_sync_detector\/_09_ u_sync_detector\/_29_:A1 0.000000
31 u_sync_detector\/_09_ u_sync_detector\/_26_:A1 0.000000
32 u_sync_detector\/_09_ u_sync_detector\/_24_:A2 0.000000
33 u_sync_detector\/_09_ u_sync_detector\/_21_:ZN 0.000000
*END

*D_NET u_sync_detector\/_10_ 4.617853
*CONN
*P u_sync_detector\/_10_ B
*I u_sync_detector\/_29_:A2 B
*I u_sync_detector\/_25_:A2 B
*I u_sync_detector\/_23_:A2 B
*I u_sync_detector\/_22_:Z B
*CAP
1 u_sync_detector\/_10_ 4.595624
2 u_sync_detector\/_10_ u_sync_detector\/_11_ 0.003801
3 u_sync_detector\/_10_ u_sync_detector\/_12_ 0.009173
4 u_sync_detector\/_10_ u_sync_detector\/match[2] 0.009255
*RES
1 u_sync_detector\/_10_ u_sync_detector\/_10_:2 70.759100
2 u_sync_detector\/_10_ u_sync_detector\/_10_:3 43.007200
3 u_sync_detector\/_10_ u_sync_detector\/_10_:4 59.874400
4 u_sync_detector\/_10_ u_sync_detector\/_10_:5 10.181700
5 u_sync_detector\/_10_ u_sync_detector\/_10_:6 0.977500
6 u_sync_detector\/_10_ u_sync_detector\/_10_:7 31.018600
7 u_sync_detector\/_10_ u_sync_detector\/_10_:8 11.832000
8 u_sync_detector\/_10_ u_sync_detector\/_10_:9 11.250100
9 u_sync_detector\/_10_ u_sync_detector\/_10_:10 22.823600
10 u_sync_detector\/_10_ u_sync_detector\/_10_:11 22.564100
11 u_sync_detector\/_10_ u_sync_detector\/_29_:A2 0.000000
12 u_sync_detector\/_10_ u_sync_detector\/_25_:A2 0.000000
13 u_sync_detector\/_10_ u_sync_detector\/_23_:A2 0.000000
14 u_sync_detector\/_10_ u_sync_detector\/_22_:Z 0.000000
*END

*D_NET u_sync_detector\/_11_ 6.024433
*CONN
*P u_sync_detector\/_11_ B
*I u_sync_detector\/_26_:A2 B
*I u_sync_detector\/_24_:A3 B
*I u_sync_detector\/_23_:Z B
*CAP
1 u_sync_detector\/_11_ 6.006253
2 u_sync_detector\/_11_ u_sync_detector\/_12_ 0.004297
3 u_sync_detector\/_11_ u_sync_detector\/match[2] 0.013883
*RES
1 u_sync_detector\/_11_ u_sync_detector\/_11_:2 50.355700
2 u_sync_detector\/_11_ u_sync_detector\/_11_:3 15.378100
3 u_sync_detector\/_11_ u_sync_detector\/_11_:4 25.077800
4 u_sync_detector\/_11_ u_sync_detector\/_11_:5 38.905600
5 u_sync_detector\/_11_ u_sync_detector\/_11_:6 47.063800
6 u_sync_detector\/_11_ u_sync_detector\/_11_:7 29.205100
7 u_sync_detector\/_11_ u_sync_detector\/_11_:8 21.282900
8 u_sync_detector\/_11_ u_sync_detector\/_11_:9 57.058100
9 u_sync_detector\/_11_ u_sync_detector\/_11_:10 31.554100
10 u_sync_detector\/_11_ u_sync_detector\/_11_:11 32.601200
11 u_sync_detector\/_11_ u_sync_detector\/_11_:12 23.473300
12 u_sync_detector\/_11_ u_sync_detector\/_11_:13 25.047400
13 u_sync_detector\/_11_ u_sync_detector\/_26_:A2 0.000000
14 u_sync_detector\/_11_ u_sync_detector\/_24_:A3 0.000000
15 u_sync_detector\/_11_ u_sync_detector\/_23_:Z 0.000000
*END

*D_NET u_sync_detector\/_12_ 3.040054
*CONN
*P u_sync_detector\/_12_ B
*I u_sync_detector\/_26_:A3 B
*I u_sync_detector\/_25_:ZN B
*CAP
1 u_sync_detector\/_12_ 2.981058
2 u_sync_detector\/_12_ u_sync_detector\/match[2] 0.058996
*RES
1 u_sync_detector\/_12_ u_sync_detector\/_12_:2 38.640700
2 u_sync_detector\/_12_ u_sync_detector\/_12_:3 19.640100
3 u_sync_detector\/_12_ u_sync_detector\/_12_:4 20.237500
4 u_sync_detector\/_12_ u_sync_detector\/_12_:5 33.266000
5 u_sync_detector\/_12_ u_sync_detector\/_12_:6 32.899500
6 u_sync_detector\/_12_ u_sync_detector\/_12_:7 24.531400
7 u_sync_detector\/_12_ u_sync_detector\/_12_:8 24.432300
8 u_sync_detector\/_12_ u_sync_detector\/_26_:A3 0.000000
9 u_sync_detector\/_12_ u_sync_detector\/_25_:ZN 0.000000
*END

*D_NET u_sync_detector\/_13_ 2.744236
*CONN
*P u_sync_detector\/_13_ B
*I u_sync_detector\/_31_:A2 B
*I u_sync_detector\/_28_:A2 B
*I u_sync_detector\/_27_:Z B
*CAP
1 u_sync_detector\/_13_ 2.723247
2 u_sync_detector\/_13_ u_sync_detector\/match[0] 0.013387
3 u_sync_detector\/_13_ u_sync_detector\/match[1] 0.003801
4 u_sync_detector\/_13_ u_sync_detector\/match[2] 0.003801
*RES
1 u_sync_detector\/_13_ u_sync_detector\/_13_:2 38.102900
2 u_sync_detector\/_13_ u_sync_detector\/_13_:3 43.227900
3 u_sync_detector\/_13_ u_sync_detector\/_13_:4 28.695500
4 u_sync_detector\/_13_ u_sync_detector\/_13_:5 52.567500
5 u_sync_detector\/_13_ u_sync_detector\/_13_:6 2.264700
6 u_sync_detector\/_13_ u_sync_detector\/_13_:7 16.676600
7 u_sync_detector\/_13_ u_sync_detector\/_31_:A2 0.000000
8 u_sync_detector\/_13_ u_sync_detector\/_28_:A2 0.000000
9 u_sync_detector\/_13_ u_sync_detector\/_27_:Z 0.000000
*END

*D_NET u_sync_detector\/_14_ 1.439044
*CONN
*P u_sync_detector\/_14_ B
*I u_sync_detector\/_29_:A3 B
*I u_sync_detector\/_28_:ZN B
*CAP
1 u_sync_detector\/_14_ 1.435656
2 u_sync_detector\/_14_ u_sync_detector\/match[1] 0.003388
*RES
1 u_sync_detector\/_14_ u_sync_detector\/_14_:2 4.044500
2 u_sync_detector\/_14_ u_sync_detector\/_14_:3 11.905300
3 u_sync_detector\/_14_ u_sync_detector\/_14_:4 29.990600
4 u_sync_detector\/_14_ u_sync_detector\/_14_:5 19.812800
5 u_sync_detector\/_14_ u_sync_detector\/_14_:6 19.567300
6 u_sync_detector\/_14_ u_sync_detector\/_29_:A3 0.000000
7 u_sync_detector\/_14_ u_sync_detector\/_28_:ZN 0.000000
*END

*D_NET u_sync_detector\/_15_ 1.984416
*CONN
*P u_sync_detector\/_15_ B
*I u_sync_detector\/_31_:B B
*I u_sync_detector\/_30_:ZN B
*CAP
1 u_sync_detector\/_15_ 1.971360
2 u_sync_detector\/_15_ u_sync_detector\/match[0] 0.005861
3 u_sync_detector\/_15_ u_sync_detector\/match[1] 0.003801
4 u_sync_detector\/_15_ u_sync_detector\/match[2] 0.003394
*RES
1 u_sync_detector\/_15_ u_sync_detector\/_15_:2 21.261000
2 u_sync_detector\/_15_ u_sync_detector\/_15_:3 16.235500
3 u_sync_detector\/_15_ u_sync_detector\/_15_:4 27.001400
4 u_sync_detector\/_15_ u_sync_detector\/_15_:5 11.256100
5 u_sync_detector\/_15_ u_sync_detector\/_15_:6 11.168100
6 u_sync_detector\/_15_ u_sync_detector\/_31_:B 0.000000
7 u_sync_detector\/_15_ u_sync_detector\/_30_:ZN 0.000000
*END

*D_NET u_sync_detector\/match\[0\] 7.641865
*CONN
*P u_sync_detector\/match\[0\] B
*I u_sync_detector\/_34_:Q B
*I u_sync_detector\/_30_:A1 B
*I u_sync_detector\/_27_:A1 B
*I u_sync_detector\/_22_:A1 B
*I u_sync_detector\/_17_:A1 B
*CAP
1 u_sync_detector\/match[0] 7.562190
2 u_sync_detector\/match[0] u_sync_detector\/match[1] 0.063962
3 u_sync_detector\/match[0] u_sync_detector\/match[2] 0.015713
*RES
1 u_sync_detector\/match[0] u_sync_detector\/match\[0\]:2 26.896500
2 u_sync_detector\/match[0] u_sync_detector\/match\[0\]:3 37.021900
3 u_sync_detector\/match[0] u_sync_detector\/match\[0\]:4 31.753100
4 u_sync_detector\/match[0] u_sync_detector\/match\[0\]:5 22.718100
5 u_sync_detector\/match[0] u_sync_detector\/match\[0\]:6 13.929500
6 u_sync_detector\/match[0] u_sync_detector\/match\[0\]:7 85.272800
7 u_sync_detector\/match[0] u_sync_detector\/match\[0\]:8 9.801200
8 u_sync_detector\/match[0] u_sync_detector\/match\[0\]:9 24.895700
9 u_sync_detector\/match[0] u_sync_detector\/match\[0\]:10 32.541000
10 u_sync_detector\/match[0] u_sync_detector\/match\[0\]:11 20.119700
11 u_sync_detector\/match[0] u_sync_detector\/match\[0\]:12 26.326800
12 u_sync_detector\/match[0] u_sync_detector\/match\[0\]:13 79.800800
13 u_sync_detector\/match[0] u_sync_detector\/match\[0\]:14 64.259200
14 u_sync_detector\/match[0] u_sync_detector\/match\[0\]:15 49.112800
15 u_sync_detector\/match[0] u_sync_detector\/match\[0\]:16 69.532600
16 u_sync_detector\/match[0] u_sync_detector\/match\[0\]:17 43.141200
17 u_sync_detector\/match[0] u_sync_detector\/_34_:Q 0.000000
18 u_sync_detector\/match[0] u_sync_detector\/_30_:A1 0.000000
19 u_sync_detector\/match[0] u_sync_detector\/_27_:A1 0.000000
20 u_sync_detector\/match[0] u_sync_detector\/_22_:A1 0.000000
21 u_sync_detector\/match[0] u_sync_detector\/_17_:A1 0.000000
*END

*D_NET u_sync_detector\/match\[1\] 6.193941
*CONN
*P u_sync_detector\/match\[1\] B
*I u_sync_detector\/_35_:Q B
*I u_sync_detector\/_28_:A1 B
*I u_sync_detector\/_22_:A3 B
*I u_sync_detector\/_17_:A2 B
*CAP
1 u_sync_detector\/match[1] 6.181711
2 u_sync_detector\/match[1] u_sync_detector\/match[2] 0.012230
*RES
1 u_sync_detector\/match[1] u_sync_detector\/match\[1\]:2 41.558400
2 u_sync_detector\/match[1] u_sync_detector\/match\[1\]:3 27.304400
3 u_sync_detector\/match[1] u_sync_detector\/match\[1\]:4 22.406300
4 u_sync_detector\/match[1] u_sync_detector\/match\[1\]:5 85.337600
5 u_sync_detector\/match[1] u_sync_detector\/match\[1\]:6 40.311100
6 u_sync_detector\/match[1] u_sync_detector\/match\[1\]:7 64.801100
7 u_sync_detector\/match[1] u_sync_detector\/match\[1\]:8 19.862300
8 u_sync_detector\/match[1] u_sync_detector\/match\[1\]:9 38.208200
9 u_sync_detector\/match[1] u_sync_detector\/match\[1\]:10 44.624000
10 u_sync_detector\/match[1] u_sync_detector\/match\[1\]:11 51.668500
11 u_sync_detector\/match[1] u_sync_detector\/match\[1\]:12 6.384900
12 u_sync_detector\/match[1] u_sync_detector\/match\[1\]:13 14.066700
13 u_sync_detector\/match[1] u_sync_detector\/match\[1\]:14 43.584300
14 u_sync_detector\/match[1] u_sync_detector\/match\[1\]:15 58.778300
15 u_sync_detector\/match[1] u_sync_detector\/_35_:Q 0.000000
16 u_sync_detector\/match[1] u_sync_detector\/_28_:A1 0.000000
17 u_sync_detector\/match[1] u_sync_detector\/_22_:A3 0.000000
18 u_sync_detector\/match[1] u_sync_detector\/_17_:A2 0.000000
*END

*D_NET u_sync_detector\/match\[2\] 8.281235
*CONN
*P u_sync_detector\/match\[2\] B
*I u_sync_detector\/_36_:Q B
*I u_sync_detector\/_25_:A1 B
*I u_sync_detector\/_23_:A1 B
*I u_sync_detector\/_17_:A3 B
*CAP
1 u_sync_detector\/match[2] 8.281235
*RES
1 u_sync_detector\/match[2] u_sync_detector\/match\[2\]:2 40.087100
2 u_sync_detector\/match[2] u_sync_detector\/match\[2\]:3 30.755100
3 u_sync_detector\/match[2] u_sync_detector\/match\[2\]:4 29.581800
4 u_sync_detector\/match[2] u_sync_detector\/match\[2\]:5 38.220000
5 u_sync_detector\/match[2] u_sync_detector\/match\[2\]:6 39.182400
6 u_sync_detector\/match[2] u_sync_detector\/match\[2\]:7 38.075000
7 u_sync_detector\/match[2] u_sync_detector\/match\[2\]:8 31.884600
8 u_sync_detector\/match[2] u_sync_detector\/match\[2\]:9 29.377700
9 u_sync_detector\/match[2] u_sync_detector\/match\[2\]:10 29.882200
10 u_sync_detector\/match[2] u_sync_detector\/match\[2\]:11 73.269200
11 u_sync_detector\/match[2] u_sync_detector\/match\[2\]:12 21.876300
12 u_sync_detector\/match[2] u_sync_detector\/match\[2\]:13 46.196800
13 u_sync_detector\/match[2] u_sync_detector\/match\[2\]:14 65.397200
14 u_sync_detector\/match[2] u_sync_detector\/match\[2\]:15 38.581900
15 u_sync_detector\/match[2] u_sync_detector\/_36_:Q 0.000000
16 u_sync_detector\/match[2] u_sync_detector\/_25_:A1 0.000000
17 u_sync_detector\/match[2] u_sync_detector\/_23_:A1 0.000000
18 u_sync_detector\/match[2] u_sync_detector\/_17_:A3 0.000000
*END

*D_NET u_sync_detector\/match\[3\] 5.390027
*CONN
*P u_sync_detector\/match\[3\] B
*I u_sync_detector\/_37_:Q B
*I u_sync_detector\/_20_:I B
*I u_sync_detector\/_19_:A1 B
*CAP
1 u_sync_detector\/match[3] 5.390027
*RES
1 u_sync_detector\/match[3] u_sync_detector\/match\[3\]:2 37.518600
2 u_sync_detector\/match[3] u_sync_detector\/match\[3\]:3 22.724400
3 u_sync_detector\/match[3] u_sync_detector\/match\[3\]:4 21.889000
4 u_sync_detector\/match[3] u_sync_detector\/match\[3\]:5 33.184100
5 u_sync_detector\/match[3] u_sync_detector\/match\[3\]:6 34.537100
6 u_sync_detector\/match[3] u_sync_detector\/match\[3\]:7 35.072500
7 u_sync_detector\/match[3] u_sync_detector\/match\[3\]:8 19.706600
8 u_sync_detector\/match[3] u_sync_detector\/match\[3\]:9 26.359200
9 u_sync_detector\/match[3] u_sync_detector\/match\[3\]:10 39.549700
10 u_sync_detector\/match[3] u_sync_detector\/match\[3\]:11 49.659900
11 u_sync_detector\/match[3] u_sync_detector\/match\[3\]:12 57.283200
12 u_sync_detector\/match[3] u_sync_detector\/match\[3\]:13 69.654700
13 u_sync_detector\/match[3] u_sync_detector\/_37_:Q 0.000000
14 u_sync_detector\/match[3] u_sync_detector\/_20_:I 0.000000
15 u_sync_detector\/match[3] u_sync_detector\/_19_:A1 0.000000
*END

