*SPEF "IEEE 1481-1999"
*DESIGN "usb_utmi_phy"
*DATE "Thu Jan 01 00:00:00 1970"
*VENDOR "2AM Logic"
*PROGRAM "klt extract"
*VERSION "0.5.0+ge8ca621a6961"
*DESIGN_FLOW "NAME_SCOPE LOCAL" "PIN_CAP NONE"
*DIVIDER /
*DELIMITER :
*BUS_DELIMITER [ ]
*T_UNIT 1 PS
*C_UNIT 1 FF
*R_UNIT 1 OHM
*L_UNIT 1 HENRY

*PORTS
DataIn\[0\] B
DataIn\[1\] B
DataIn\[2\] B
DataIn\[3\] B
DataIn\[4\] B
DataIn\[5\] B
DataIn\[6\] B
DataIn\[7\] B
DataOut\[0\] B
DataOut\[1\] B
DataOut\[2\] B
DataOut\[3\] B
DataOut\[4\] B
DataOut\[5\] B
DataOut\[6\] B
DataOut\[7\] B
OpMode\[0\] B
OpMode\[1\] B
Reset B
RxError B
RxValid B
SuspendM B
TermSelect B
TxReady B
TxValid B
VDD B
VSS B
XcvrSelect B
ZN B
_000_ B
_001_ B
_002_ B
_003_ B
_004_ B
_005_ B
_006_ B
_007_ B
_008_ B
_009_ B
_010_ B
_011_ B
_012_ B
_013_ B
_014_ B
_015_ B
_016_ B
_017_ B
_018_ B
_019_ B
_020_ B
_021_ B
_022_ B
_023_ B
_024_ B
_025_ B
_026_ B
_027_ B
_028_ B
_029_ B
_030_ B
_031_ B
_032_ B
_033_ B
_034_ B
_035_ B
_036_ B
_037_ B
_038_ B
_039_ B
_040_ B
_042_ B
_043_ B
_044_ B
_045_ B
_046_ B
_047_ B
_048_ B
_049_ B
_050_ B
_051_ B
_052_ B
_053_ B
_055_ B
_056_ B
_057_ B
_058_ B
_059_ B
_060_ B
_061_ B
_062_ B
_063_ B
_064_ B
_066_ B
_067_ B
_068_ B
_069_ B
_070_ B
_071_ B
_072_ B
_073_ B
_074_ B
_075_ B
_076_ B
_077_ B
_078_ B
_079_ B
_080_ B
_081_ B
_082_ B
_083_ B
_084_ B
_085_ B
_086_ B
_088_ B
_089_ B
_090_ B
_091_ B
_092_ B
_094_ B
_095_ B
_096_ B
_097_ B
_098_ B
_099_ B
_100_ B
_101_ B
_102_ B
_103_ B
_104_ B
_105_ B
_106_ B
_107_ B
_108_ B
_109_ B
_110_ B
_111_ B
_112_ B
_113_ B
_114_ B
_115_ B
_116_ B
_117_ B
_118_ B
_119_ B
_120_ B
_121_ B
_122_ B
_123_ B
_124_ B
_125_ B
_126_ B
_127_ B
_128_ B
_129_ B
_130_ B
_131_ B
_132_ B
_133_ B
_134_ B
_135_ B
_136_ B
_137_ B
_138_ B
_139_ B
_140_ B
_141_ B
_142_ B
_143_ B
_144_ B
_145_ B
_146_ B
_147_ B
bus_reset B
byte_idx\[0\] B
byte_idx\[1\] B
byte_idx\[2\] B
byte_reg\[0\] B
byte_reg\[1\] B
byte_reg\[2\] B
byte_reg\[3\] B
byte_reg\[4\] B
byte_reg\[5\] B
byte_reg\[6\] B
byte_reg\[7\] B
clk B
clknet_0_clk B
clknet_3_0__leaf_clk B
clknet_3_1__leaf_clk B
clknet_3_2__leaf_clk B
clknet_3_3__leaf_clk B
clknet_3_4__leaf_clk B
clknet_3_5__leaf_clk B
clknet_3_6__leaf_clk B
clknet_3_7__leaf_clk B
dec_bit_level B
dec_bit_strobe B
dec_data_bit B
dec_data_strobe B
entering_sync B
eop_pulse B
first_byte B
line_state\[0\] B
line_state\[1\] B
nrzi_level B
raw_mode B
rst_n B
rx_assembly_en B
rx_bit_valid B
rx_bitcnt\[0\] B
rx_bitcnt\[1\] B
rx_bitcnt\[2\] B
rx_out_bit B
rx_receiving B
rx_shift\[1\] B
rx_shift\[2\] B
rx_shift\[3\] B
rx_shift\[4\] B
rx_shift\[5\] B
rx_shift\[6\] B
rx_shift\[7\] B
rx_stuff_err B
rxdm B
rxdp B
stuff_bit_out B
stuff_consume B
stuff_pending_after B
sync_idx\[0\] B
sync_idx\[1\] B
sync_idx\[2\] B
sync_next B
tx_body_active B
tx_state\[0\] B
tx_state\[1\] B
tx_state\[2\] B
tx_state\[3\] B
tx_state\[4\] B
tx_state\[5\] B
tx_state\[6\] B
tx_state\[7\] B
txdm B
txdp B
u_decoder\/_00_ B
u_decoder\/_01_ B
u_decoder\/_02_ B
u_decoder\/_03_ B
u_decoder\/_04_ B
u_decoder\/prev_level B
u_destuffer\/_00_ B
u_destuffer\/_01_ B
u_destuffer\/_02_ B
u_destuffer\/_03_ B
u_destuffer\/_04_ B
u_destuffer\/_05_ B
u_destuffer\/_06_ B
u_destuffer\/_07_ B
u_destuffer\/_08_ B
u_destuffer\/_09_ B
u_destuffer\/_10_ B
u_destuffer\/_11_ B
u_destuffer\/_12_ B
u_destuffer\/_13_ B
u_destuffer\/_14_ B
u_destuffer\/_15_ B
u_destuffer\/ones_run\[0\] B
u_destuffer\/ones_run\[1\] B
u_destuffer\/ones_run\[2\] B
u_encoder\/_0_ B
u_encoder\/_1_ B
u_encoder\/_2_ B
u_eop_detector\/_00_ B
u_eop_detector\/_01_ B
u_eop_detector\/_02_ B
u_eop_detector\/_03_ B
u_eop_detector\/_04_ B
u_eop_detector\/_05_ B
u_eop_detector\/_06_ B
u_eop_detector\/_07_ B
u_eop_detector\/_08_ B
u_eop_detector\/_09_ B
u_eop_detector\/_10_ B
u_eop_detector\/_11_ B
u_eop_detector\/_12_ B
u_eop_detector\/_13_ B
u_eop_detector\/_14_ B
u_eop_detector\/_15_ B
u_eop_detector\/_16_ B
u_eop_detector\/_17_ B
u_eop_detector\/_18_ B
u_eop_detector\/_19_ B
u_eop_detector\/_20_ B
u_eop_detector\/_21_ B
u_eop_detector\/_22_ B
u_eop_detector\/_23_ B
u_eop_detector\/_24_ B
u_eop_detector\/_25_ B
u_eop_detector\/_26_ B
u_eop_detector\/se0_count\[0\] B
u_eop_detector\/se0_count\[1\] B
u_eop_detector\/se0_count\[2\] B
u_eop_detector\/se0_count\[3\] B
u_eop_detector\/se0_count\[4\] B
u_eop_detector\/se0_count\[5\] B
u_line_state\/_0_ B
u_line_state\/_1_ B
u_line_state\/_2_ B
u_stuffer\/_00_ B
u_stuffer\/_01_ B
u_stuffer\/_02_ B
u_stuffer\/_03_ B
u_stuffer\/_04_ B
u_stuffer\/_05_ B
u_stuffer\/_06_ B
u_stuffer\/_07_ B
u_stuffer\/_08_ B
u_stuffer\/_09_ B
u_stuffer\/_10_ B
u_stuffer\/_11_ B
u_stuffer\/_12_ B
u_stuffer\/_13_ B
u_stuffer\/run\[0\] B
u_stuffer\/run\[1\] B
u_stuffer\/run\[2\] B
u_sync_detector\/_00_ B
u_sync_detector\/_01_ B
u_sync_detector\/_02_ B
u_sync_detector\/_03_ B
u_sync_detector\/_04_ B
u_sync_detector\/_05_ B
u_sync_detector\/_06_ B
u_sync_detector\/_07_ B
u_sync_detector\/_08_ B
u_sync_detector\/_09_ B
u_sync_detector\/_10_ B
u_sync_detector\/_11_ B
u_sync_detector\/_12_ B
u_sync_detector\/_13_ B
u_sync_detector\/_14_ B
u_sync_detector\/_15_ B
u_sync_detector\/match\[0\] B
u_sync_detector\/match\[1\] B
u_sync_detector\/match\[2\] B
u_sync_detector\/match\[3\] B
u_sync_detector\/sync_valid B

*D_NET \$1008 2.834836
*CAP
1 \$1008:1 2.809878
2 \$1008:1 _050_ 0.013554
3 \$1008:1 _084_ 0.007603
4 \$1008:1 rx_bit_valid 0.003801
*RES
1 \$1008:1 \$1008:2 11.304300
2 \$1008:1 \$1008:3 33.459400
3 \$1008:1 \$1008:4 16.518000
4 \$1008:1 \$1008:5 24.564700
5 \$1008:1 \$1008:6 36.539100
6 \$1008:1 \$1008:7 27.284300
7 \$1008:1 \$1008:8 19.428000
8 \$1008:1 \$1008:9 15.301800
9 \$1008:1 \$1008:10 21.768900
10 \$1008:1 \$1008:11 14.668000
11 \$1008:1 \$1008:12 23.157400
12 \$1008:1 \$1008:13 32.182600
13 \$1008:1 \$1008:14 39.343800
14 \$1008:1 \$1008:15 30.301000
*END

*D_NET \$1011 2.899770
*CAP
1 \$1011:1 2.888366
2 \$1011:1 _049_ 0.003801
3 \$1011:1 clknet_3_2__leaf_clk 0.007603
*RES
1 \$1011:1 \$1011:2 110.065100
2 \$1011:1 \$1011:3 20.494200
3 \$1011:1 \$1011:4 82.156100
4 \$1011:1 \$1011:5 34.925800
5 \$1011:1 \$1011:6 48.068200
6 \$1011:1 \$1011:7 65.091900
7 \$1011:1 \$1011:8 46.925300
8 \$1011:1 \$1011:9 65.705800
*END

*D_NET \$1012 2.130471
*CAP
1 \$1012:1 2.130471
*RES
1 \$1012:1 \$1012:2 23.606500
2 \$1012:1 \$1012:3 48.046900
3 \$1012:1 \$1012:4 13.008400
4 \$1012:1 \$1012:5 63.310200
5 \$1012:1 \$1012:6 48.146100
6 \$1012:1 \$1012:7 47.329500
*END

*D_NET \$1013 0.845043
*CAP
1 \$1013:1 0.843560
2 \$1013:1 _049_ 0.001483
*RES
1 \$1013:1 \$1013:2 27.599400
2 \$1013:1 \$1013:3 23.748600
3 \$1013:1 \$1013:4 22.372100
4 \$1013:1 \$1013:5 12.741300
5 \$1013:1 \$1013:6 22.897300
6 \$1013:1 \$1013:7 13.523900
*END

*D_NET \$1014 0.832679
*CAP
1 \$1014:1 0.832679
*RES
1 \$1014:1 \$1014:2 16.527400
2 \$1014:1 \$1014:3 15.499600
3 \$1014:1 \$1014:4 10.523900
4 \$1014:1 \$1014:5 17.319100
5 \$1014:1 \$1014:6 10.298700
6 \$1014:1 \$1014:7 13.857700
*END

*D_NET \$1015 0.973478
*CAP
1 \$1015:1 0.973478
*RES
1 \$1015:1 \$1015:2 17.360700
2 \$1015:1 \$1015:3 17.105400
3 \$1015:1 \$1015:4 13.771500
4 \$1015:1 \$1015:5 16.870200
5 \$1015:1 \$1015:6 8.058000
6 \$1015:1 \$1015:7 8.212700
*END

*D_NET \$1016 1.343363
*CAP
1 \$1016:1 1.343363
*RES
1 \$1016:1 \$1016:2 18.380300
2 \$1016:1 \$1016:3 30.960700
3 \$1016:1 \$1016:4 37.678600
4 \$1016:1 \$1016:5 19.166400
5 \$1016:1 \$1016:6 31.720400
6 \$1016:1 \$1016:7 37.481600
*END

*D_NET \$1018 2.898431
*CAP
1 \$1018:1 2.889751
2 \$1018:1 _036_ 0.004879
3 \$1018:1 clknet_3_2__leaf_clk 0.003801
*RES
1 \$1018:1 \$1018:2 110.065100
2 \$1018:1 \$1018:3 20.494200
3 \$1018:1 \$1018:4 82.156100
4 \$1018:1 \$1018:5 34.925800
5 \$1018:1 \$1018:6 48.068200
6 \$1018:1 \$1018:7 65.091900
7 \$1018:1 \$1018:8 46.925300
8 \$1018:1 \$1018:9 65.705800
*END

*D_NET \$1019 2.153131
*CAP
1 \$1019:1 2.107049
2 \$1019:1 _053_ 0.003801
3 \$1019:1 _095_ 0.003801
4 \$1019:1 _128_ 0.028151
5 \$1019:1 rx_bitcnt[2] 0.003801
6 \$1019:1 rx_receiving 0.006528
*RES
1 \$1019:1 \$1019:2 23.606500
2 \$1019:1 \$1019:3 48.046900
3 \$1019:1 \$1019:4 13.008400
4 \$1019:1 \$1019:5 63.310200
5 \$1019:1 \$1019:6 48.146100
6 \$1019:1 \$1019:7 47.329500
*END

*D_NET \$1020 0.853437
*CAP
1 \$1020:1 0.834885
2 \$1020:1 _036_ 0.009421
3 \$1020:1 _095_ 0.005619
4 \$1020:1 rx_bitcnt[2] 0.003512
*RES
1 \$1020:1 \$1020:2 27.599400
2 \$1020:1 \$1020:3 23.748600
3 \$1020:1 \$1020:4 22.372100
4 \$1020:1 \$1020:5 12.741300
5 \$1020:1 \$1020:6 22.897300
6 \$1020:1 \$1020:7 13.523900
*END

*D_NET \$1021 0.852458
*CAP
1 \$1021:1 0.812235
2 \$1021:1 _053_ 0.028985
3 \$1021:1 _095_ 0.005619
4 \$1021:1 rx_bitcnt[2] 0.005619
*RES
1 \$1021:1 \$1021:2 16.527400
2 \$1021:1 \$1021:3 15.499600
3 \$1021:1 \$1021:4 10.523900
4 \$1021:1 \$1021:5 17.319100
5 \$1021:1 \$1021:6 10.298700
6 \$1021:1 \$1021:7 13.857700
*END

*D_NET \$1022 0.979390
*CAP
1 \$1022:1 0.967367
2 \$1022:1 _128_ 0.003801
3 \$1022:1 rx_receiving 0.008222
*RES
1 \$1022:1 \$1022:2 17.360700
2 \$1022:1 \$1022:3 17.105400
3 \$1022:1 \$1022:4 13.771500
4 \$1022:1 \$1022:5 16.870200
5 \$1022:1 \$1022:6 8.058000
6 \$1022:1 \$1022:7 8.212700
*END

*D_NET \$1023 1.345232
*CAP
1 \$1023:1 1.341431
2 \$1023:1 clknet_0_clk 0.003801
*RES
1 \$1023:1 \$1023:2 18.380300
2 \$1023:1 \$1023:3 30.960700
3 \$1023:1 \$1023:4 37.678600
4 \$1023:1 \$1023:5 19.166400
5 \$1023:1 \$1023:6 31.720400
6 \$1023:1 \$1023:7 37.481600
*END

*D_NET \$1024 1.075176
*CAP
1 \$1024:1 1.071212
2 \$1024:1 rx_stuff_err 0.003964
*RES
1 \$1024:1 \$1024:2 13.242300
2 \$1024:1 \$1024:3 21.267000
3 \$1024:1 \$1024:4 18.132100
4 \$1024:1 \$1024:5 12.683900
5 \$1024:1 \$1024:6 16.491100
*END

*D_NET \$1027 2.901639
*CAP
1 \$1027:1 2.886434
2 \$1027:1 TxValid 0.003801
3 \$1027:1 clknet_3_3__leaf_clk 0.007603
4 \$1027:1 rx_shift[6] 0.003801
*RES
1 \$1027:1 \$1027:2 110.065100
2 \$1027:1 \$1027:3 20.494200
3 \$1027:1 \$1027:4 82.156100
4 \$1027:1 \$1027:5 34.925800
5 \$1027:1 \$1027:6 48.068200
6 \$1027:1 \$1027:7 65.091900
7 \$1027:1 \$1027:8 46.925300
8 \$1027:1 \$1027:9 65.705800
*END

*D_NET \$1028 2.143459
*CAP
1 \$1028:1 2.117048
2 \$1028:1 _001_ 0.003801
3 \$1028:1 rx_out_bit 0.003801
4 \$1028:1 rx_receiving 0.004678
5 \$1028:1 rx_shift[6] 0.007603
6 \$1028:1 tx_state[5] 0.006528
*RES
1 \$1028:1 \$1028:2 23.606500
2 \$1028:1 \$1028:3 48.046900
3 \$1028:1 \$1028:4 13.008400
4 \$1028:1 \$1028:5 63.310200
5 \$1028:1 \$1028:6 48.146100
6 \$1028:1 \$1028:7 47.329500
*END

*D_NET \$1029 0.846447
*CAP
1 \$1029:1 0.842110
2 \$1029:1 TxValid 0.000536
3 \$1029:1 _001_ 0.003801
*RES
1 \$1029:1 \$1029:2 27.599400
2 \$1029:1 \$1029:3 23.748600
3 \$1029:1 \$1029:4 22.372100
4 \$1029:1 \$1029:5 12.741300
5 \$1029:1 \$1029:6 22.897300
6 \$1029:1 \$1029:7 13.523900
*END

*D_NET \$1030 0.847506
*CAP
1 \$1030:1 0.817354
2 \$1030:1 _001_ 0.000465
3 \$1030:1 rx_out_bit 0.028985
4 \$1030:1 rx_receiving 0.000702
*RES
1 \$1030:1 \$1030:2 16.527400
2 \$1030:1 \$1030:3 15.499600
3 \$1030:1 \$1030:4 10.523900
4 \$1030:1 \$1030:5 17.319100
5 \$1030:1 \$1030:6 10.298700
6 \$1030:1 \$1030:7 13.857700
*END

*D_NET \$1031 0.973478
*CAP
1 \$1031:1 0.973478
*RES
1 \$1031:1 \$1031:2 17.360700
2 \$1031:1 \$1031:3 17.105400
3 \$1031:1 \$1031:4 13.771500
4 \$1031:1 \$1031:5 16.870200
5 \$1031:1 \$1031:6 8.058000
6 \$1031:1 \$1031:7 8.212700
*END

*D_NET \$1032 1.345232
*CAP
1 \$1032:1 1.341431
2 \$1032:1 clk 0.003801
*RES
1 \$1032:1 \$1032:2 18.380300
2 \$1032:1 \$1032:3 30.960700
3 \$1032:1 \$1032:4 37.678600
4 \$1032:1 \$1032:5 19.166400
5 \$1032:1 \$1032:6 31.720400
6 \$1032:1 \$1032:7 37.481600
*END

*D_NET \$1033 1.073271
*CAP
1 \$1033:1 1.065668
2 \$1033:1 clknet_0_clk 0.007603
*RES
1 \$1033:1 \$1033:2 14.315200
2 \$1033:1 \$1033:3 18.099400
3 \$1033:1 \$1033:4 21.244800
4 \$1033:1 \$1033:5 12.128100
5 \$1033:1 \$1033:6 16.029100
*END

*D_NET \$1037 0.359625
*CAP
1 \$1037:1 0.355824
2 \$1037:1 TxValid 0.003801
*RES
1 \$1037:1 \$1037:2 0.768000
2 \$1037:1 \$1037:3 0.006800
3 \$1037:1 \$1037:4 0.774800
*END

*D_NET \$1039 1.597338
*CAP
1 \$1039:1 1.575754
2 \$1039:1 _008_ 0.003801
3 \$1039:1 _012_ 0.003801
4 \$1039:1 _055_ 0.003801
5 \$1039:1 _061_ 0.002579
6 \$1039:1 tx_state[2] 0.003801
7 \$1039:1 tx_state[6] 0.003801
*RES
1 \$1039:1 \$1039:2 1.725700
2 \$1039:1 \$1039:3 1.725700
3 \$1039:1 \$1039:4 0.799300
4 \$1039:1 \$1039:5 1.053600
5 \$1039:1 \$1039:6 0.799300
6 \$1039:1 \$1039:7 1.053600
*END

*D_NET \$1040 1.598866
*CAP
1 \$1040:1 1.574176
2 \$1040:1 TxValid 0.005684
3 \$1040:1 _074_ 0.003801
4 \$1040:1 _134_ 0.003801
5 \$1040:1 stuff_consume 0.003801
6 \$1040:1 tx_state[2] 0.007603
*RES
1 \$1040:1 \$1040:2 1.725700
2 \$1040:1 \$1040:3 1.725700
3 \$1040:1 \$1040:4 1.053600
4 \$1040:1 \$1040:5 0.799300
5 \$1040:1 \$1040:6 1.053600
6 \$1040:1 \$1040:7 0.799300
*END

*D_NET \$1092 0.312302
*CAP
1 \$1092:1 0.312302
*RES
1 \$1092:1 \$1092:2 0.635800
2 \$1092:1 \$1092:3 0.035300
3 \$1092:1 \$1092:4 0.671100
*END

*D_NET \$1095 3.219744
*CAP
1 \$1095:1 3.212142
2 \$1095:1 rx_bitcnt[0] 0.003801
3 \$1095:1 rx_bitcnt[1] 0.003801
*RES
1 \$1095:1 \$1095:2 10.969400
2 \$1095:1 \$1095:3 29.676900
3 \$1095:1 \$1095:4 23.061900
4 \$1095:1 \$1095:5 16.685000
5 \$1095:1 \$1095:6 30.528700
6 \$1095:1 \$1095:7 17.361900
7 \$1095:1 \$1095:8 23.647600
8 \$1095:1 \$1095:9 12.597000
9 \$1095:1 \$1095:10 22.034600
10 \$1095:1 \$1095:11 9.628300
11 \$1095:1 \$1095:12 6.276400
12 \$1095:1 \$1095:13 35.495700
13 \$1095:1 \$1095:14 28.723400
14 \$1095:1 \$1095:15 15.537600
15 \$1095:1 \$1095:16 24.244900
16 \$1095:1 \$1095:17 17.882200
*END

*D_NET \$1097 0.317640
*CAP
1 \$1097:1 0.306785
2 \$1097:1 _036_ 0.003801
3 \$1097:1 rx_bitcnt[2] 0.007054
*RES
1 \$1097:1 \$1097:2 0.635800
2 \$1097:1 \$1097:3 0.035300
3 \$1097:1 \$1097:4 0.671100
*END

*D_NET \$1098 2.510842
*CAP
1 \$1098:1 2.510842
*RES
1 \$1098:1 \$1098:2 25.357500
2 \$1098:1 \$1098:3 17.460200
3 \$1098:1 \$1098:4 17.679900
4 \$1098:1 \$1098:5 36.428000
5 \$1098:1 \$1098:6 36.954100
6 \$1098:1 \$1098:7 25.810100
7 \$1098:1 \$1098:8 17.679900
8 \$1098:1 \$1098:9 17.460200
9 \$1098:1 \$1098:10 36.428000
10 \$1098:1 \$1098:11 25.357500
11 \$1098:1 \$1098:12 25.810100
12 \$1098:1 \$1098:13 36.954100
*END

*D_NET \$1099 2.897047
*CAP
1 \$1099:1 2.891180
2 \$1099:1 _017_ 0.003801
3 \$1099:1 clknet_3_2__leaf_clk 0.002066
*RES
1 \$1099:1 \$1099:2 110.065100
2 \$1099:1 \$1099:3 20.494200
3 \$1099:1 \$1099:4 82.156100
4 \$1099:1 \$1099:5 34.925800
5 \$1099:1 \$1099:6 48.068200
6 \$1099:1 \$1099:7 65.091900
7 \$1099:1 \$1099:8 46.925300
8 \$1099:1 \$1099:9 65.705800
*END

*D_NET \$11 0.320435
*CAP
1 \$11:1 0.303896
2 \$11:1 u_eop_detector\/_10_ 0.005684
3 \$11:1 u_eop_detector\/_20_ 0.003801
4 \$11:1 u_eop_detector\/se0_count[1] 0.007054
*RES
1 \$11:1 \$11:2 0.635800
2 \$11:1 \$11:3 0.671100
3 \$11:1 \$11:4 0.035300
*END

*D_NET \$110 3.219744
*CAP
1 \$110:1 3.212142
2 \$110:1 u_eop_detector\/se0_count[3] 0.003801
3 \$110:1 u_eop_detector\/se0_count[4] 0.003801
*RES
1 \$110:1 \$110:2 10.969400
2 \$110:1 \$110:3 16.685000
3 \$110:1 \$110:4 29.676900
4 \$110:1 \$110:5 23.061900
5 \$110:1 \$110:6 30.528700
6 \$110:1 \$110:7 12.597000
7 \$110:1 \$110:8 17.361900
8 \$110:1 \$110:9 23.647600
9 \$110:1 \$110:10 22.034600
10 \$110:1 \$110:11 9.628300
11 \$110:1 \$110:12 6.276400
12 \$110:1 \$110:13 28.723400
13 \$110:1 \$110:14 35.495700
14 \$110:1 \$110:15 15.537600
15 \$110:1 \$110:16 17.882200
16 \$110:1 \$110:17 24.244900
*END

*D_NET \$1100 0.833638
*CAP
1 \$1100:1 0.831686
2 \$1100:1 _017_ 0.001952
*RES
1 \$1100:1 \$1100:2 16.527400
2 \$1100:1 \$1100:3 15.499600
3 \$1100:1 \$1100:4 10.523900
4 \$1100:1 \$1100:5 17.319100
5 \$1100:1 \$1100:6 10.298700
6 \$1100:1 \$1100:7 13.857700
*END

*D_NET \$1101 0.975414
*CAP
1 \$1101:1 0.971477
2 \$1101:1 _050_ 0.000136
3 \$1101:1 _084_ 0.003801
*RES
1 \$1101:1 \$1101:2 17.105400
2 \$1101:1 \$1101:3 17.360700
3 \$1101:1 \$1101:4 13.771500
4 \$1101:1 \$1101:5 16.870200
5 \$1101:1 \$1101:6 8.058000
6 \$1101:1 \$1101:7 8.212700
*END

*D_NET \$1102 1.347995
*CAP
1 \$1102:1 1.338575
2 \$1102:1 _050_ 0.005619
3 \$1102:1 _086_ 0.003801
*RES
1 \$1102:1 \$1102:2 19.166400
2 \$1102:1 \$1102:3 31.720400
3 \$1102:1 \$1102:4 37.678600
4 \$1102:1 \$1102:5 18.380300
5 \$1102:1 \$1102:6 30.960700
6 \$1102:1 \$1102:7 37.481600
*END

*D_NET \$1103 2.904657
*CAP
1 \$1103:1 2.883316
2 \$1103:1 TxValid 0.003801
3 \$1103:1 rx_out_bit 0.003801
4 \$1103:1 rx_receiving 0.004879
5 \$1103:1 rx_shift[6] 0.008860
*RES
1 \$1103:1 \$1103:2 110.065100
2 \$1103:1 \$1103:3 20.494200
3 \$1103:1 \$1103:4 82.156100
4 \$1103:1 \$1103:5 34.925800
5 \$1103:1 \$1103:6 48.068200
6 \$1103:1 \$1103:7 65.091900
7 \$1103:1 \$1103:8 46.925300
8 \$1103:1 \$1103:9 65.705800
*END

*D_NET \$1105 0.842715
*CAP
1 \$1105:1 0.822305
2 \$1105:1 DataIn[7] 0.020410
*RES
1 \$1105:1 \$1105:2 16.527400
2 \$1105:1 \$1105:3 15.499600
3 \$1105:1 \$1105:4 10.523900
4 \$1105:1 \$1105:5 17.319100
5 \$1105:1 \$1105:6 10.298700
6 \$1105:1 \$1105:7 13.857700
*END

*D_NET \$1106 0.978326
*CAP
1 \$1106:1 0.968468
2 \$1106:1 DataIn[7] 0.009858
*RES
1 \$1106:1 \$1106:2 17.105400
2 \$1106:1 \$1106:3 17.360700
3 \$1106:1 \$1106:4 13.771500
4 \$1106:1 \$1106:5 16.870200
5 \$1106:1 \$1106:6 8.058000
6 \$1106:1 \$1106:7 8.212700
*END

*D_NET \$1107 1.345232
*CAP
1 \$1107:1 1.341431
2 \$1107:1 DataIn[7] 0.003801
*RES
1 \$1107:1 \$1107:2 19.166400
2 \$1107:1 \$1107:3 31.720400
3 \$1107:1 \$1107:4 37.678600
4 \$1107:1 \$1107:5 18.380300
5 \$1107:1 \$1107:6 30.960700
6 \$1107:1 \$1107:7 37.481600
*END

*D_NET \$1108 2.905995
*CAP
1 \$1108:1 2.881931
2 \$1108:1 OpMode[0] 0.003801
3 \$1108:1 _003_ 0.003801
4 \$1108:1 _053_ 0.008860
5 \$1108:1 clknet_3_6__leaf_clk 0.003801
6 \$1108:1 txdp 0.003801
*RES
1 \$1108:1 \$1108:2 110.065100
2 \$1108:1 \$1108:3 20.494200
3 \$1108:1 \$1108:4 82.156100
4 \$1108:1 \$1108:5 34.925800
5 \$1108:1 \$1108:6 48.068200
6 \$1108:1 \$1108:7 65.091900
7 \$1108:1 \$1108:8 46.925300
8 \$1108:1 \$1108:9 65.705800
*END

*D_NET \$1109 0.846168
*CAP
1 \$1109:1 0.818737
2 \$1109:1 clknet_3_6__leaf_clk 0.027431
*RES
1 \$1109:1 \$1109:2 16.527400
2 \$1109:1 \$1109:3 15.499600
3 \$1109:1 \$1109:4 10.523900
4 \$1109:1 \$1109:5 17.319100
5 \$1109:1 \$1109:6 10.298700
6 \$1109:1 \$1109:7 13.857700
*END

*D_NET \$1110 0.984089
*CAP
1 \$1110:1 0.962511
2 \$1110:1 line_state[0] 0.003801
3 \$1110:1 line_state[1] 0.003801
4 \$1110:1 txdm 0.013976
*RES
1 \$1110:1 \$1110:2 17.105400
2 \$1110:1 \$1110:3 17.360700
3 \$1110:1 \$1110:4 13.771500
4 \$1110:1 \$1110:5 16.870200
5 \$1110:1 \$1110:6 8.058000
6 \$1110:1 \$1110:7 8.212700
*END

*D_NET \$1111 1.349467
*CAP
1 \$1111:1 1.337054
2 \$1111:1 OpMode[1] 0.003801
3 \$1111:1 line_state[0] 0.001505
4 \$1111:1 txdm 0.007107
*RES
1 \$1111:1 \$1111:2 19.166400
2 \$1111:1 \$1111:3 31.720400
3 \$1111:1 \$1111:4 37.678600
4 \$1111:1 \$1111:5 18.380300
5 \$1111:1 \$1111:6 30.960700
6 \$1111:1 \$1111:7 37.481600
*END

*D_NET \$1112 2.895178
*CAP
1 \$1112:1 2.893112
2 \$1112:1 clknet_3_6__leaf_clk 0.002066
*RES
1 \$1112:1 \$1112:2 110.065100
2 \$1112:1 \$1112:3 20.494200
3 \$1112:1 \$1112:4 82.156100
4 \$1112:1 \$1112:5 34.925800
5 \$1112:1 \$1112:6 48.068200
6 \$1112:1 \$1112:7 65.091900
7 \$1112:1 \$1112:8 46.925300
8 \$1112:1 \$1112:9 65.705800
*END

*D_NET \$1113 0.838246
*CAP
1 \$1113:1 0.826925
2 \$1113:1 TxReady 0.000702
3 \$1113:1 _004_ 0.003512
4 \$1113:1 _053_ 0.007107
*RES
1 \$1113:1 \$1113:2 16.527400
2 \$1113:1 \$1113:3 15.499600
3 \$1113:1 \$1113:4 10.523900
4 \$1113:1 \$1113:5 17.319100
5 \$1113:1 \$1113:6 10.298700
6 \$1113:1 \$1113:7 13.857700
*END

*D_NET \$1114 0.974611
*CAP
1 \$1114:1 0.972307
2 \$1114:1 byte_idx[0] 0.002304
*RES
1 \$1114:1 \$1114:2 17.105400
2 \$1114:1 \$1114:3 17.360700
3 \$1114:1 \$1114:4 13.771500
4 \$1114:1 \$1114:5 16.870200
5 \$1114:1 \$1114:6 8.058000
6 \$1114:1 \$1114:7 8.212700
*END

*D_NET \$1115 1.343363
*CAP
1 \$1115:1 1.343363
*RES
1 \$1115:1 \$1115:2 19.166400
2 \$1115:1 \$1115:3 31.720400
3 \$1115:1 \$1115:4 37.678600
4 \$1115:1 \$1115:5 18.380300
5 \$1115:1 \$1115:6 30.960700
6 \$1115:1 \$1115:7 37.481600
*END

*D_NET \$1116 0.312302
*CAP
1 \$1116:1 0.312302
*RES
1 \$1116:1 \$1116:2 0.635800
2 \$1116:1 \$1116:3 0.035300
3 \$1116:1 \$1116:4 0.671100
*END

*D_NET \$1118 2.055136
*CAP
1 \$1118:1 2.024726
2 \$1118:1 TxValid 0.003801
3 \$1118:1 _061_ 0.003801
4 \$1118:1 _074_ 0.003801
5 \$1118:1 byte_idx[0] 0.003801
6 \$1118:1 byte_idx[1] 0.007603
7 \$1118:1 tx_state[2] 0.007603
*RES
1 \$1118:1 \$1118:2 1.050000
2 \$1118:1 \$1118:3 1.050000
3 \$1118:1 \$1118:4 0.085100
4 \$1118:1 \$1118:5 0.085100
5 \$1118:1 \$1118:6 0.912200
6 \$1118:1 \$1118:7 0.636500
7 \$1118:1 \$1118:8 0.360800
8 \$1118:1 \$1118:9 0.223000
9 \$1118:1 \$1118:10 0.498700
10 \$1118:1 \$1118:11 0.774300
11 \$1118:1 \$1118:12 0.774300
12 \$1118:1 \$1118:13 0.498700
13 \$1118:1 \$1118:14 0.223000
14 \$1118:1 \$1118:15 0.360800
15 \$1118:1 \$1118:16 0.912200
16 \$1118:1 \$1118:17 0.636500
*END

*D_NET \$1120 1.938385
*CAP
1 \$1120:1 1.916163
2 \$1120:1 _080_ 0.003801
3 \$1120:1 _132_ 0.003801
4 \$1120:1 _134_ 0.014620
*RES
1 \$1120:1 \$1120:2 19.751900
2 \$1120:1 \$1120:3 13.835300
3 \$1120:1 \$1120:4 25.759600
4 \$1120:1 \$1120:5 22.810200
5 \$1120:1 \$1120:6 26.448600
6 \$1120:1 \$1120:7 28.540100
7 \$1120:1 \$1120:8 10.898100
8 \$1120:1 \$1120:9 16.678500
*END

*D_NET \$1124 2.146183
*CAP
1 \$1124:1 2.114231
2 \$1124:1 _017_ 0.003801
3 \$1124:1 _084_ 0.028151
*RES
1 \$1124:1 \$1124:2 48.046900
2 \$1124:1 \$1124:3 13.008400
3 \$1124:1 \$1124:4 63.310200
4 \$1124:1 \$1124:5 23.606500
5 \$1124:1 \$1124:6 48.146100
6 \$1124:1 \$1124:7 47.329500
*END

*D_NET \$1125 0.846790
*CAP
1 \$1125:1 0.841754
2 \$1125:1 _017_ 0.005036
*RES
1 \$1125:1 \$1125:2 27.599400
2 \$1125:1 \$1125:3 23.748600
3 \$1125:1 \$1125:4 22.372100
4 \$1125:1 \$1125:5 12.741300
5 \$1125:1 \$1125:6 22.897300
6 \$1125:1 \$1125:7 13.523900
*END

*D_NET \$1126 2.138941
*CAP
1 \$1126:1 2.121716
2 \$1126:1 DataIn[7] 0.005091
3 \$1126:1 _016_ 0.003801
4 \$1126:1 rx_out_bit 0.004532
5 \$1126:1 rx_receiving 0.003801
*RES
1 \$1126:1 \$1126:2 48.046900
2 \$1126:1 \$1126:3 13.008400
3 \$1126:1 \$1126:4 63.310200
4 \$1126:1 \$1126:5 23.606500
5 \$1126:1 \$1126:6 48.146100
6 \$1126:1 \$1126:7 47.329500
*END

*D_NET \$1127 0.849840
*CAP
1 \$1127:1 0.838602
2 \$1127:1 rx_out_bit 0.005619
3 \$1127:1 rx_receiving 0.005619
*RES
1 \$1127:1 \$1127:2 27.599400
2 \$1127:1 \$1127:3 23.748600
3 \$1127:1 \$1127:4 22.372100
4 \$1127:1 \$1127:5 12.741300
5 \$1127:1 \$1127:6 22.897300
6 \$1127:1 \$1127:7 13.523900
*END

*D_NET \$1129 2.162949
*CAP
1 \$1129:1 2.096905
2 \$1129:1 OpMode[0] 0.004532
3 \$1129:1 clknet_0_clk 0.000992
4 \$1129:1 clknet_3_6__leaf_clk 0.003801
5 \$1129:1 line_state[1] 0.028151
6 \$1129:1 txdp 0.028568
*RES
1 \$1129:1 \$1129:2 48.046900
2 \$1129:1 \$1129:3 13.008400
3 \$1129:1 \$1129:4 63.310200
4 \$1129:1 \$1129:5 23.606500
5 \$1129:1 \$1129:6 48.146100
6 \$1129:1 \$1129:7 47.329500
*END

*D_NET \$1130 0.847077
*CAP
1 \$1130:1 0.841458
2 \$1130:1 OpMode[0] 0.005619
*RES
1 \$1130:1 \$1130:2 27.599400
2 \$1130:1 \$1130:3 23.748600
3 \$1130:1 \$1130:4 22.372100
4 \$1130:1 \$1130:5 12.741300
5 \$1130:1 \$1130:6 22.897300
6 \$1130:1 \$1130:7 13.523900
*END

*D_NET \$1131 2.137851
*CAP
1 \$1131:1 2.122844
2 \$1131:1 TxReady 0.004678
3 \$1131:1 _053_ 0.003801
4 \$1131:1 byte_idx[0] 0.006528
*RES
1 \$1131:1 \$1131:2 48.046900
2 \$1131:1 \$1131:3 13.008400
3 \$1131:1 \$1131:4 63.310200
4 \$1131:1 \$1131:5 23.606500
5 \$1131:1 \$1131:6 48.146100
6 \$1131:1 \$1131:7 47.329500
*END

*D_NET \$1132 0.850674
*CAP
1 \$1132:1 0.837741
2 \$1132:1 _004_ 0.009421
3 \$1132:1 _053_ 0.003512
*RES
1 \$1132:1 \$1132:2 27.599400
2 \$1132:1 \$1132:3 23.748600
3 \$1132:1 \$1132:4 22.372100
4 \$1132:1 \$1132:5 12.741300
5 \$1132:1 \$1132:6 22.897300
6 \$1132:1 \$1132:7 13.523900
*END

*D_NET \$118 2.119164
*CAP
1 \$118:1 2.088933
2 \$118:1 clknet_3_4__leaf_clk 0.003801
3 \$118:1 u_eop_detector\/_09_ 0.009314
4 \$118:1 u_eop_detector\/_10_ 0.001912
5 \$118:1 u_eop_detector\/_11_ 0.003801
6 \$118:1 u_eop_detector\/_17_ 0.003801
7 \$118:1 u_eop_detector\/se0_count[1] 0.003801
8 \$118:1 u_eop_detector\/se0_count[5] 0.003801
*RES
1 \$118:1 \$118:2 2.323100
2 \$118:1 \$118:3 2.264200
3 \$118:1 \$118:4 1.087900
4 \$118:1 \$118:5 1.407100
5 \$118:1 \$118:6 1.058400
6 \$118:1 \$118:7 1.377700
*END

*D_NET \$1182 3.479751
*CAP
1 \$1182:1 3.454583
2 \$1182:1 _053_ 0.003801
3 \$1182:1 rx_bitcnt[2] 0.003801
4 \$1182:1 rx_receiving 0.017566
*RES
1 \$1182:1 \$1182:2 11.591800
2 \$1182:1 \$1182:3 26.719100
3 \$1182:1 \$1182:4 16.467600
4 \$1182:1 \$1182:5 21.549000
5 \$1182:1 \$1182:6 28.498100
6 \$1182:1 \$1182:7 23.040100
7 \$1182:1 \$1182:8 17.818900
8 \$1182:1 \$1182:9 13.120400
9 \$1182:1 \$1182:10 4.231900
10 \$1182:1 \$1182:11 5.659700
11 \$1182:1 \$1182:12 12.600500
12 \$1182:1 \$1182:13 22.915300
13 \$1182:1 \$1182:14 33.420600
14 \$1182:1 \$1182:15 7.756000
15 \$1182:1 \$1182:16 17.713200
16 \$1182:1 \$1182:17 28.157400
17 \$1182:1 \$1182:18 19.685500
18 \$1182:1 \$1182:19 14.742400
*END

*D_NET \$1185 1.718017
*CAP
1 \$1185:1 1.688592
2 \$1185:1 _096_ 0.018021
3 \$1185:1 rx_out_bit 0.003801
4 \$1185:1 rx_receiving 0.007603
*RES
1 \$1185:1 \$1185:2 16.448400
2 \$1185:1 \$1185:3 23.905800
3 \$1185:1 \$1185:4 16.161900
4 \$1185:1 \$1185:5 23.905800
5 \$1185:1 \$1185:6 22.317000
6 \$1185:1 \$1185:7 17.875500
7 \$1185:1 \$1185:8 25.339300
8 \$1185:1 \$1185:9 15.064400
*END

*D_NET \$1186 1.124040
*CAP
1 \$1186:1 1.114785
2 \$1186:1 DataIn[7] 0.009255
*RES
1 \$1186:1 \$1186:2 28.301000
2 \$1186:1 \$1186:3 35.373400
3 \$1186:1 \$1186:4 31.303900
4 \$1186:1 \$1186:5 31.869700
*END

*D_NET \$1187 2.519723
*CAP
1 \$1187:1 2.501664
2 \$1187:1 OpMode[0] 0.003801
3 \$1187:1 clknet_0_clk 0.014258
*RES
1 \$1187:1 \$1187:2 17.679900
2 \$1187:1 \$1187:3 17.460200
3 \$1187:1 \$1187:4 25.357500
4 \$1187:1 \$1187:5 36.428000
5 \$1187:1 \$1187:6 36.954100
6 \$1187:1 \$1187:7 25.810100
7 \$1187:1 \$1187:8 17.679900
8 \$1187:1 \$1187:9 17.460200
9 \$1187:1 \$1187:10 36.428000
10 \$1187:1 \$1187:11 25.357500
11 \$1187:1 \$1187:12 25.810100
12 \$1187:1 \$1187:13 36.954100
*END

*D_NET \$1189 1.164051
*CAP
1 \$1189:1 1.164051
*RES
1 \$1189:1 \$1189:2 15.591400
2 \$1189:1 \$1189:3 15.822300
3 \$1189:1 \$1189:4 14.701800
4 \$1189:1 \$1189:5 14.938000
5 \$1189:1 \$1189:6 10.362400
6 \$1189:1 \$1189:7 10.820300
*END

*D_NET \$119 0.318835
*CAP
1 \$119:1 0.305549
2 \$119:1 u_eop_detector\/_04_ 0.003801
3 \$119:1 u_eop_detector\/_15_ 0.003801
4 \$119:1 u_eop_detector\/_23_ 0.005684
*RES
1 \$119:1 \$119:2 0.635800
2 \$119:1 \$119:3 0.035300
3 \$119:1 \$119:4 0.671100
*END

*D_NET \$1195 0.287202
*CAP
1 \$1195:1 0.277203
2 \$1195:1 TxReady 0.009999
*RES
1 \$1195:1 \$1195:2 0.311400
2 \$1195:1 \$1195:3 0.300900
3 \$1195:1 \$1195:4 0.300900
4 \$1195:1 \$1195:5 0.292000
*END

*D_NET \$1196 1.037242
*CAP
1 \$1196:1 1.028147
2 \$1196:1 _081_ 0.003801
3 \$1196:1 byte_idx[0] 0.001493
4 \$1196:1 byte_reg[5] 0.003801
*RES
1 \$1196:1 \$1196:2 1.034100
2 \$1196:1 \$1196:3 1.039100
3 \$1196:1 \$1196:4 0.501700
4 \$1196:1 \$1196:5 0.728400
5 \$1196:1 \$1196:6 0.790700
6 \$1196:1 \$1196:7 0.531100
*END

*D_NET \$1197 0.248673
*CAP
1 \$1197:1 0.248673
*RES
1 \$1197:1 \$1197:2 0.259800
2 \$1197:1 \$1197:3 0.254100
3 \$1197:1 \$1197:4 0.262700
4 \$1197:1 \$1197:5 0.256500
*END

*D_NET \$1199 1.084427
*CAP
1 \$1199:1 1.072858
2 \$1199:1 _082_ 0.011569
*RES
1 \$1199:1 \$1199:2 29.119900
2 \$1199:1 \$1199:3 32.052400
3 \$1199:1 \$1199:4 42.378100
4 \$1199:1 \$1199:5 35.182000
*END

*D_NET \$1200 0.241780
*CAP
1 \$1200:1 0.241309
2 \$1200:1 byte_reg[0] 0.000471
*RES
1 \$1200:1 \$1200:2 0.252900
2 \$1200:1 \$1200:3 0.252900
3 \$1200:1 \$1200:4 0.256700
4 \$1200:1 \$1200:5 0.256700
*END

*D_NET \$1202 3.135179
*CAP
1 \$1202:1 3.132939
2 \$1202:1 byte_reg[0] 0.002240
*RES
1 \$1202:1 \$1202:2 118.828700
2 \$1202:1 \$1202:3 38.647500
3 \$1202:1 \$1202:4 84.628100
4 \$1202:1 \$1202:5 89.847000
5 \$1202:1 \$1202:6 55.115800
6 \$1202:1 \$1202:7 139.105500
*END

*D_NET \$1203 0.363055
*CAP
1 \$1203:1 0.359254
2 \$1203:1 byte_reg[0] 0.003801
*RES
1 \$1203:1 \$1203:2 0.399500
2 \$1203:1 \$1203:3 0.377400
3 \$1203:1 \$1203:4 0.382200
4 \$1203:1 \$1203:5 0.406100
*END

*D_NET \$1204 0.364824
*CAP
1 \$1204:1 0.350450
2 \$1204:1 _140_ 0.004353
3 \$1204:1 byte_idx[0] 0.003801
4 \$1204:1 byte_idx[1] 0.006220
*RES
1 \$1204:1 \$1204:2 0.774800
2 \$1204:1 \$1204:3 0.001000
3 \$1204:1 \$1204:4 0.774800
*END

*D_NET \$1217 0.316040
*CAP
1 \$1217:1 0.308438
2 \$1217:1 _021_ 0.003801
3 \$1217:1 _084_ 0.003801
*RES
1 \$1217:1 \$1217:2 0.635800
2 \$1217:1 \$1217:3 0.035300
3 \$1217:1 \$1217:4 0.671100
*END

*D_NET \$1218 1.089532
*CAP
1 \$1218:1 1.072675
2 \$1218:1 _082_ 0.003801
3 \$1218:1 byte_reg[0] 0.009255
4 \$1218:1 byte_reg[1] 0.003801
*RES
1 \$1218:1 \$1218:2 0.957600
2 \$1218:1 \$1218:3 0.943400
3 \$1218:1 \$1218:4 0.452600
4 \$1218:1 \$1218:5 0.670100
5 \$1218:1 \$1218:6 0.449900
6 \$1218:1 \$1218:7 0.698900
*END

*D_NET \$1226 2.897901
*CAP
1 \$1226:1 2.890298
2 \$1226:1 clknet_3_2__leaf_clk 0.007603
*RES
1 \$1226:1 \$1226:2 110.065100
2 \$1226:1 \$1226:3 20.494200
3 \$1226:1 \$1226:4 82.156100
4 \$1226:1 \$1226:5 34.925800
5 \$1226:1 \$1226:6 48.068200
6 \$1226:1 \$1226:7 65.091900
7 \$1226:1 \$1226:8 46.925300
8 \$1226:1 \$1226:9 65.705800
*END

*D_NET \$1227 2.149393
*CAP
1 \$1227:1 2.110913
2 \$1227:1 _086_ 0.028151
3 \$1227:1 _127_ 0.003801
4 \$1227:1 rx_bitcnt[0] 0.006528
*RES
1 \$1227:1 \$1227:2 48.046900
2 \$1227:1 \$1227:3 13.008400
3 \$1227:1 \$1227:4 63.310200
4 \$1227:1 \$1227:5 23.606500
5 \$1227:1 \$1227:6 48.146100
6 \$1227:1 \$1227:7 47.329500
*END

*D_NET \$1228 0.848947
*CAP
1 \$1228:1 0.839526
2 \$1228:1 _033_ 0.009421
*RES
1 \$1228:1 \$1228:2 27.599400
2 \$1228:1 \$1228:3 23.748600
3 \$1228:1 \$1228:4 22.372100
4 \$1228:1 \$1228:5 12.741300
5 \$1228:1 \$1228:6 22.897300
6 \$1228:1 \$1228:7 13.523900
*END

*D_NET \$1229 0.850290
*CAP
1 \$1229:1 0.814477
2 \$1229:1 _033_ 0.006828
3 \$1229:1 _127_ 0.028985
*RES
1 \$1229:1 \$1229:2 16.527400
2 \$1229:1 \$1229:3 15.499600
3 \$1229:1 \$1229:4 10.523900
4 \$1229:1 \$1229:5 17.319100
5 \$1229:1 \$1229:6 10.298700
6 \$1229:1 \$1229:7 13.857700
*END

*D_NET \$1230 0.978278
*CAP
1 \$1230:1 0.968517
2 \$1230:1 _086_ 0.003801
3 \$1230:1 _089_ 0.005960
*RES
1 \$1230:1 \$1230:2 17.105400
2 \$1230:1 \$1230:3 17.360700
3 \$1230:1 \$1230:4 13.771500
4 \$1230:1 \$1230:5 16.870200
5 \$1230:1 \$1230:6 8.058000
6 \$1230:1 \$1230:7 8.212700
*END

*D_NET \$1231 1.344103
*CAP
1 \$1231:1 1.342598
2 \$1231:1 _089_ 0.001505
*RES
1 \$1231:1 \$1231:2 19.166400
2 \$1231:1 \$1231:3 31.720400
3 \$1231:1 \$1231:4 37.678600
4 \$1231:1 \$1231:5 18.380300
5 \$1231:1 \$1231:6 30.960700
6 \$1231:1 \$1231:7 37.481600
*END

*D_NET \$1232 2.903619
*CAP
1 \$1232:1 2.884388
2 \$1232:1 _021_ 0.003801
3 \$1232:1 _084_ 0.003801
4 \$1232:1 _089_ 0.004027
5 \$1232:1 _103_ 0.003801
6 \$1232:1 clknet_3_3__leaf_clk 0.003801
*RES
1 \$1232:1 \$1232:2 110.065100
2 \$1232:1 \$1232:3 20.494200
3 \$1232:1 \$1232:4 82.156100
4 \$1232:1 \$1232:5 34.925800
5 \$1232:1 \$1232:6 48.068200
6 \$1232:1 \$1232:7 65.091900
7 \$1232:1 \$1232:8 46.925300
8 \$1232:1 \$1232:9 65.705800
*END

*D_NET \$1233 2.154093
*CAP
1 \$1233:1 2.106056
2 \$1233:1 _050_ 0.003801
3 \$1233:1 _084_ 0.027971
4 \$1233:1 _086_ 0.003801
5 \$1233:1 _089_ 0.003801
6 \$1233:1 _103_ 0.004862
7 \$1233:1 rx_shift[7] 0.003801
*RES
1 \$1233:1 \$1233:2 48.046900
2 \$1233:1 \$1233:3 13.008400
3 \$1233:1 \$1233:4 63.310200
4 \$1233:1 \$1233:5 23.606500
5 \$1233:1 \$1233:6 48.146100
6 \$1233:1 \$1233:7 47.329500
*END

*D_NET \$1234 0.857093
*CAP
1 \$1234:1 0.831105
2 \$1234:1 _050_ 0.005619
3 \$1234:1 _086_ 0.003512
4 \$1234:1 _089_ 0.005619
5 \$1234:1 _103_ 0.005619
6 \$1234:1 rx_shift[7] 0.005619
*RES
1 \$1234:1 \$1234:2 27.599400
2 \$1234:1 \$1234:3 23.748600
3 \$1234:1 \$1234:4 22.372100
4 \$1234:1 \$1234:5 12.741300
5 \$1234:1 \$1234:6 22.897300
6 \$1234:1 \$1234:7 13.523900
*END

*D_NET \$1235 0.839932
*CAP
1 \$1235:1 0.825182
2 \$1235:1 _050_ 0.005619
3 \$1235:1 _086_ 0.005619
4 \$1235:1 _089_ 0.003512
*RES
1 \$1235:1 \$1235:2 16.527400
2 \$1235:1 \$1235:3 15.499600
3 \$1235:1 \$1235:4 10.523900
4 \$1235:1 \$1235:5 17.319100
5 \$1235:1 \$1235:6 10.298700
6 \$1235:1 \$1235:7 13.857700
*END

*D_NET \$1236 0.973545
*CAP
1 \$1236:1 0.973409
2 \$1236:1 clknet_0_clk 0.000136
*RES
1 \$1236:1 \$1236:2 17.105400
2 \$1236:1 \$1236:3 17.360700
3 \$1236:1 \$1236:4 13.771500
4 \$1236:1 \$1236:5 16.870200
5 \$1236:1 \$1236:6 8.058000
6 \$1236:1 \$1236:7 8.212700
*END

*D_NET \$1237 1.346126
*CAP
1 \$1237:1 1.340507
2 \$1237:1 clknet_0_clk 0.005619
*RES
1 \$1237:1 \$1237:2 19.166400
2 \$1237:1 \$1237:3 31.720400
3 \$1237:1 \$1237:4 37.678600
4 \$1237:1 \$1237:5 18.380300
5 \$1237:1 \$1237:6 30.960700
6 \$1237:1 \$1237:7 37.481600
*END

*D_NET \$1239 2.902170
*CAP
1 \$1239:1 2.885887
2 \$1239:1 _045_ 0.003801
3 \$1239:1 clknet_3_3__leaf_clk 0.007603
4 \$1239:1 rx_shift[6] 0.004879
*RES
1 \$1239:1 \$1239:2 110.065100
2 \$1239:1 \$1239:3 20.494200
3 \$1239:1 \$1239:4 82.156100
4 \$1239:1 \$1239:5 34.925800
5 \$1239:1 \$1239:6 48.068200
6 \$1239:1 \$1239:7 65.091900
7 \$1239:1 \$1239:8 46.925300
8 \$1239:1 \$1239:9 65.705800
*END

*D_NET \$1240 2.164132
*CAP
1 \$1240:1 2.095680
2 \$1240:1 TxValid 0.003801
3 \$1240:1 _045_ 0.017432
4 \$1240:1 _096_ 0.006528
5 \$1240:1 rx_receiving 0.028151
6 \$1240:1 rx_shift[6] 0.003801
7 \$1240:1 rx_shift[7] 0.008739
*RES
1 \$1240:1 \$1240:2 48.046900
2 \$1240:1 \$1240:3 13.008400
3 \$1240:1 \$1240:4 63.310200
4 \$1240:1 \$1240:5 23.606500
5 \$1240:1 \$1240:6 48.146100
6 \$1240:1 \$1240:7 47.329500
*END

*D_NET \$1241 0.849840
*CAP
1 \$1241:1 0.838602
2 \$1241:1 TxValid 0.005619
3 \$1241:1 rx_shift[6] 0.005619
*RES
1 \$1241:1 \$1241:2 27.599400
2 \$1241:1 \$1241:3 23.748600
3 \$1241:1 \$1241:4 22.372100
4 \$1241:1 \$1241:5 12.741300
5 \$1241:1 \$1241:6 22.897300
6 \$1241:1 \$1241:7 13.523900
*END

*D_NET \$1242 0.834406
*CAP
1 \$1242:1 0.830894
2 \$1242:1 TxValid 0.003512
*RES
1 \$1242:1 \$1242:2 16.527400
2 \$1242:1 \$1242:3 15.499600
3 \$1242:1 \$1242:4 10.523900
4 \$1242:1 \$1242:5 17.319100
5 \$1242:1 \$1242:6 10.298700
6 \$1242:1 \$1242:7 13.857700
*END

*D_NET \$1243 0.975347
*CAP
1 \$1243:1 0.971546
2 \$1243:1 rx_receiving 0.003801
*RES
1 \$1243:1 \$1243:2 17.105400
2 \$1243:1 \$1243:3 17.360700
3 \$1243:1 \$1243:4 13.771500
4 \$1243:1 \$1243:5 16.870200
5 \$1243:1 \$1243:6 8.058000
6 \$1243:1 \$1243:7 8.212700
*END

*D_NET \$1244 1.345232
*CAP
1 \$1244:1 1.341431
2 \$1244:1 RxError 0.003801
*RES
1 \$1244:1 \$1244:2 19.166400
2 \$1244:1 \$1244:3 31.720400
3 \$1244:1 \$1244:4 37.678600
4 \$1244:1 \$1244:5 18.380300
5 \$1244:1 \$1244:6 30.960700
6 \$1244:1 \$1244:7 37.481600
*END

*D_NET \$1246 2.911163
*CAP
1 \$1246:1 2.876592
2 \$1246:1 OpMode[0] 0.014403
3 \$1246:1 clknet_3_6__leaf_clk 0.011488
4 \$1246:1 line_state[0] 0.004879
5 \$1246:1 line_state[1] 0.003801
*RES
1 \$1246:1 \$1246:2 110.065100
2 \$1246:1 \$1246:3 20.494200
3 \$1246:1 \$1246:4 82.156100
4 \$1246:1 \$1246:5 34.925800
5 \$1246:1 \$1246:6 48.068200
6 \$1246:1 \$1246:7 65.091900
7 \$1246:1 \$1246:8 46.925300
8 \$1246:1 \$1246:9 65.705800
*END

*D_NET \$1247 2.144345
*CAP
1 \$1247:1 2.116130
2 \$1247:1 OpMode[1] 0.003801
3 \$1247:1 _019_ 0.003801
4 \$1247:1 _052_ 0.004678
5 \$1247:1 clknet_3_6__leaf_clk 0.003801
6 \$1247:1 line_state[0] 0.003801
7 \$1247:1 line_state[1] 0.004532
8 \$1247:1 txdm 0.003801
*RES
1 \$1247:1 \$1247:2 48.046900
2 \$1247:1 \$1247:3 13.008400
3 \$1247:1 \$1247:4 63.310200
4 \$1247:1 \$1247:5 23.606500
5 \$1247:1 \$1247:6 48.146100
6 \$1247:1 \$1247:7 47.329500
*END

*D_NET \$1248 0.852603
*CAP
1 \$1248:1 0.835746
2 \$1248:1 line_state[0] 0.005619
3 \$1248:1 line_state[1] 0.005619
4 \$1248:1 txdm 0.005619
*RES
1 \$1248:1 \$1248:2 27.599400
2 \$1248:1 \$1248:3 23.748600
3 \$1248:1 \$1248:4 22.372100
4 \$1248:1 \$1248:5 12.741300
5 \$1248:1 \$1248:6 22.897300
6 \$1248:1 \$1248:7 13.523900
*END

*D_NET \$1249 0.850040
*CAP
1 \$1249:1 0.814734
2 \$1249:1 OpMode[1] 0.028985
3 \$1249:1 _052_ 0.000702
4 \$1249:1 txdm 0.005619
*RES
1 \$1249:1 \$1249:2 16.527400
2 \$1249:1 \$1249:3 15.499600
3 \$1249:1 \$1249:4 10.523900
4 \$1249:1 \$1249:5 17.319100
5 \$1249:1 \$1249:6 10.298700
6 \$1249:1 \$1249:7 13.857700
*END

*D_NET \$1250 0.973478
*CAP
1 \$1250:1 0.973478
*RES
1 \$1250:1 \$1250:2 17.105400
2 \$1250:1 \$1250:3 17.360700
3 \$1250:1 \$1250:4 13.771500
4 \$1250:1 \$1250:5 16.870200
5 \$1250:1 \$1250:6 8.058000
6 \$1250:1 \$1250:7 8.212700
*END

*D_NET \$1251 1.343363
*CAP
1 \$1251:1 1.343363
*RES
1 \$1251:1 \$1251:2 19.166400
2 \$1251:1 \$1251:3 31.720400
3 \$1251:1 \$1251:4 37.678600
4 \$1251:1 \$1251:5 18.380300
5 \$1251:1 \$1251:6 30.960700
6 \$1251:1 \$1251:7 37.481600
*END

*D_NET \$1255 0.314171
*CAP
1 \$1255:1 0.310370
2 \$1255:1 clknet_3_7__leaf_clk 0.003801
*RES
1 \$1255:1 \$1255:2 0.650500
2 \$1255:1 \$1255:3 0.020600
3 \$1255:1 \$1255:4 0.671100
*END

*D_NET \$1258 0.316966
*CAP
1 \$1258:1 0.307481
2 \$1258:1 _134_ 0.003801
3 \$1258:1 _136_ 0.005684
*RES
1 \$1258:1 \$1258:2 0.635800
2 \$1258:1 \$1258:3 0.035300
3 \$1258:1 \$1258:4 0.671100
*END

*D_NET \$1295 0.992494
*CAP
1 \$1295:1 0.992494
*RES
1 \$1295:1 \$1295:2 16.906500
2 \$1295:1 \$1295:3 22.222400
3 \$1295:1 \$1295:4 15.494600
4 \$1295:1 \$1295:5 10.784800
5 \$1295:1 \$1295:6 16.047200
*END

*D_NET \$1296 2.553683
*CAP
1 \$1296:1 2.518068
2 \$1296:1 _086_ 0.007603
3 \$1296:1 _089_ 0.011042
4 \$1296:1 rx_bitcnt[0] 0.016970
*RES
1 \$1296:1 \$1296:2 14.730900
2 \$1296:1 \$1296:3 17.620200
3 \$1296:1 \$1296:4 36.485900
4 \$1296:1 \$1296:5 17.620200
5 \$1296:1 \$1296:6 26.112800
6 \$1296:1 \$1296:7 36.004200
7 \$1296:1 \$1296:8 14.671300
8 \$1296:1 \$1296:9 26.112800
9 \$1296:1 \$1296:10 34.726100
10 \$1296:1 \$1296:11 25.390400
11 \$1296:1 \$1296:12 34.249400
12 \$1296:1 \$1296:13 45.192800
*END

*D_NET \$1297 2.897901
*CAP
1 \$1297:1 2.890298
2 \$1297:1 clknet_3_2__leaf_clk 0.007603
*RES
1 \$1297:1 \$1297:2 110.065100
2 \$1297:1 \$1297:3 20.494200
3 \$1297:1 \$1297:4 82.156100
4 \$1297:1 \$1297:5 34.925800
5 \$1297:1 \$1297:6 48.068200
6 \$1297:1 \$1297:7 65.091900
7 \$1297:1 \$1297:8 46.925300
8 \$1297:1 \$1297:9 65.705800
*END

*D_NET \$1298 2.136511
*CAP
1 \$1298:1 2.124230
2 \$1298:1 _089_ 0.004678
3 \$1298:1 clknet_3_2__leaf_clk 0.007603
*RES
1 \$1298:1 \$1298:2 23.606500
2 \$1298:1 \$1298:3 48.046900
3 \$1298:1 \$1298:4 13.008400
4 \$1298:1 \$1298:5 63.310200
5 \$1298:1 \$1298:6 48.146100
6 \$1298:1 \$1298:7 47.329500
*END

*D_NET \$13 0.314171
*CAP
1 \$13:1 0.310370
2 \$13:1 u_eop_detector\/_21_ 0.003801
*RES
1 \$13:1 \$13:2 0.635800
2 \$13:1 \$13:3 0.035300
3 \$13:1 \$13:4 0.671100
*END

*D_NET \$1300 0.848947
*CAP
1 \$1300:1 0.839526
2 \$1300:1 _026_ 0.009421
*RES
1 \$1300:1 \$1300:2 27.599400
2 \$1300:1 \$1300:3 23.748600
3 \$1300:1 \$1300:4 22.372100
4 \$1300:1 \$1300:5 12.741300
5 \$1300:1 \$1300:6 22.897300
6 \$1300:1 \$1300:7 13.523900
*END

*D_NET \$1301 0.836381
*CAP
1 \$1301:1 0.828851
2 \$1301:1 _026_ 0.006828
3 \$1301:1 _089_ 0.000702
*RES
1 \$1301:1 \$1301:2 16.527400
2 \$1301:1 \$1301:3 15.499600
3 \$1301:1 \$1301:4 10.523900
4 \$1301:1 \$1301:5 17.319100
5 \$1301:1 \$1301:6 10.298700
6 \$1301:1 \$1301:7 13.857700
*END

*D_NET \$1302 0.973478
*CAP
1 \$1302:1 0.973478
*RES
1 \$1302:1 \$1302:2 17.360700
2 \$1302:1 \$1302:3 17.105400
3 \$1302:1 \$1302:4 13.771500
4 \$1302:1 \$1302:5 16.870200
5 \$1302:1 \$1302:6 8.058000
6 \$1302:1 \$1302:7 8.212700
*END

*D_NET \$1303 1.343363
*CAP
1 \$1303:1 1.343363
*RES
1 \$1303:1 \$1303:2 18.380300
2 \$1303:1 \$1303:3 30.960700
3 \$1303:1 \$1303:4 37.678600
4 \$1303:1 \$1303:5 19.166400
5 \$1303:1 \$1303:6 31.720400
6 \$1303:1 \$1303:7 37.481600
*END

*D_NET \$1314 1.077045
*CAP
1 \$1314:1 1.069280
2 \$1314:1 _053_ 0.003964
3 \$1314:1 _125_ 0.003801
*RES
1 \$1314:1 \$1314:2 13.242300
2 \$1314:1 \$1314:3 21.267000
3 \$1314:1 \$1314:4 18.132100
4 \$1314:1 \$1314:5 12.683900
5 \$1314:1 \$1314:6 16.491100
*END

*D_NET \$1317 2.897901
*CAP
1 \$1317:1 2.890298
2 \$1317:1 clknet_3_7__leaf_clk 0.007603
*RES
1 \$1317:1 \$1317:2 110.065100
2 \$1317:1 \$1317:3 20.494200
3 \$1317:1 \$1317:4 82.156100
4 \$1317:1 \$1317:5 34.925800
5 \$1317:1 \$1317:6 48.068200
6 \$1317:1 \$1317:7 65.091900
7 \$1317:1 \$1317:8 46.925300
8 \$1317:1 \$1317:9 65.705800
*END

*D_NET \$1318 2.141096
*CAP
1 \$1318:1 2.119490
2 \$1318:1 _047_ 0.004532
3 \$1318:1 _131_ 0.005670
4 \$1318:1 _135_ 0.003801
5 \$1318:1 clknet_3_7__leaf_clk 0.007603
*RES
1 \$1318:1 \$1318:2 23.606500
2 \$1318:1 \$1318:3 48.046900
3 \$1318:1 \$1318:4 13.008400
4 \$1318:1 \$1318:5 63.310200
5 \$1318:1 \$1318:6 48.146100
6 \$1318:1 \$1318:7 47.329500
*END

*D_NET \$1319 0.846183
*CAP
1 \$1319:1 0.842382
2 \$1319:1 _047_ 0.003801
*RES
1 \$1319:1 \$1319:2 27.599400
2 \$1319:1 \$1319:3 23.748600
3 \$1319:1 \$1319:4 22.372100
4 \$1319:1 \$1319:5 12.741300
5 \$1319:1 \$1319:6 22.897300
6 \$1319:1 \$1319:7 13.523900
*END

*D_NET \$1320 0.847277
*CAP
1 \$1320:1 0.817590
2 \$1320:1 _131_ 0.000702
3 \$1320:1 _135_ 0.028985
*RES
1 \$1320:1 \$1320:2 16.527400
2 \$1320:1 \$1320:3 15.499600
3 \$1320:1 \$1320:4 10.523900
4 \$1320:1 \$1320:5 17.319100
5 \$1320:1 \$1320:6 10.298700
6 \$1320:1 \$1320:7 13.857700
*END

*D_NET \$1321 0.980418
*CAP
1 \$1321:1 0.966306
2 \$1321:1 _052_ 0.000136
3 \$1321:1 _137_ 0.013976
*RES
1 \$1321:1 \$1321:2 17.360700
2 \$1321:1 \$1321:3 17.105400
3 \$1321:1 \$1321:4 13.771500
4 \$1321:1 \$1321:5 16.870200
5 \$1321:1 \$1321:6 8.058000
6 \$1321:1 \$1321:7 8.212700
*END

*D_NET \$1322 1.350758
*CAP
1 \$1322:1 1.335719
2 \$1322:1 _052_ 0.005619
3 \$1322:1 _137_ 0.005619
4 \$1322:1 byte_idx[1] 0.003801
*RES
1 \$1322:1 \$1322:2 18.380300
2 \$1322:1 \$1322:3 30.960700
3 \$1322:1 \$1322:4 37.678600
4 \$1322:1 \$1322:5 19.166400
5 \$1322:1 \$1322:6 31.720400
6 \$1322:1 \$1322:7 37.481600
*END

*D_NET \$1335 0.271015
*CAP
1 \$1335:1 0.263413
2 \$1335:1 _086_ 0.003801
3 \$1335:1 _089_ 0.003801
*RES
1 \$1335:1 \$1335:2 0.550900
2 \$1335:1 \$1335:3 0.017400
3 \$1335:1 \$1335:4 0.568400
*END

*D_NET \$1336 0.316040
*CAP
1 \$1336:1 0.308438
2 \$1336:1 OpMode[0] 0.003801
3 \$1336:1 clknet_3_6__leaf_clk 0.003801
*RES
1 \$1336:1 \$1336:2 0.650500
2 \$1336:1 \$1336:3 0.020600
3 \$1336:1 \$1336:4 0.671100
*END

*D_NET \$1337 0.315687
*CAP
1 \$1337:1 0.308804
2 \$1337:1 _107_ 0.006883
*RES
1 \$1337:1 \$1337:2 0.650500
2 \$1337:1 \$1337:3 0.020600
3 \$1337:1 \$1337:4 0.671100
*END

*D_NET \$134 1.859935
*CAP
1 \$134:1 1.826470
2 \$134:1 dec_data_strobe 0.003801
3 \$134:1 u_sync_detector\/_01_ 0.007603
4 \$134:1 u_sync_detector\/_12_ 0.008972
5 \$134:1 u_sync_detector\/match[0] 0.009288
6 \$134:1 u_sync_detector\/match[1] 0.003801
*RES
1 \$134:1 \$134:2 13.204000
2 \$134:1 \$134:3 21.238700
3 \$134:1 \$134:4 23.954400
4 \$134:1 \$134:5 25.462200
5 \$134:1 \$134:6 18.989400
6 \$134:1 \$134:7 26.952600
7 \$134:1 \$134:8 15.977400
8 \$134:1 \$134:9 11.142000
*END

*D_NET \$1349 0.312302
*CAP
1 \$1349:1 0.312302
*RES
1 \$1349:1 \$1349:2 0.635800
2 \$1349:1 \$1349:3 0.035300
3 \$1349:1 \$1349:4 0.671100
*END

*D_NET \$1352 0.312302
*CAP
1 \$1352:1 0.312302
*RES
1 \$1352:1 \$1352:2 0.635800
2 \$1352:1 \$1352:3 0.035300
3 \$1352:1 \$1352:4 0.671100
*END

*D_NET \$1354 0.318037
*CAP
1 \$1354:1 0.306374
2 \$1354:1 _086_ 0.003801
3 \$1354:1 _147_ 0.007862
*RES
1 \$1354:1 \$1354:2 0.635800
2 \$1354:1 \$1354:3 0.035300
3 \$1354:1 \$1354:4 0.671100
*END

*D_NET \$1356 2.514372
*CAP
1 \$1356:1 2.507194
2 \$1356:1 clknet_0_clk 0.007178
*RES
1 \$1356:1 \$1356:2 17.460200
2 \$1356:1 \$1356:3 25.357500
3 \$1356:1 \$1356:4 17.679900
4 \$1356:1 \$1356:5 36.428000
5 \$1356:1 \$1356:6 36.954100
6 \$1356:1 \$1356:7 25.810100
7 \$1356:1 \$1356:8 17.679900
8 \$1356:1 \$1356:9 17.460200
9 \$1356:1 \$1356:10 36.428000
10 \$1356:1 \$1356:11 25.357500
11 \$1356:1 \$1356:12 25.810100
12 \$1356:1 \$1356:13 36.954100
*END

*D_NET \$1357 1.714225
*CAP
1 \$1357:1 1.692512
2 \$1357:1 DataIn[6] 0.010309
3 \$1357:1 TxValid 0.007603
4 \$1357:1 rx_shift[7] 0.003801
*RES
1 \$1357:1 \$1357:2 16.448400
2 \$1357:1 \$1357:3 23.905800
3 \$1357:1 \$1357:4 16.161900
4 \$1357:1 \$1357:5 23.905800
5 \$1357:1 \$1357:6 22.317000
6 \$1357:1 \$1357:7 17.875500
7 \$1357:1 \$1357:8 25.339300
8 \$1357:1 \$1357:9 15.064400
*END

*D_NET \$1359 1.136139
*CAP
1 \$1359:1 1.102279
2 \$1359:1 DataIn[6] 0.003801
3 \$1359:1 _096_ 0.026258
4 \$1359:1 rx_shift[6] 0.003801
*RES
1 \$1359:1 \$1359:2 28.301000
2 \$1359:1 \$1359:3 35.373400
3 \$1359:1 \$1359:4 31.303900
4 \$1359:1 \$1359:5 31.869700
*END

*D_NET \$1362 2.900300
*CAP
1 \$1362:1 2.887819
2 \$1362:1 clk 0.003801
3 \$1362:1 clknet_3_6__leaf_clk 0.003801
4 \$1362:1 txdp 0.004879
*RES
1 \$1362:1 \$1362:2 110.065100
2 \$1362:1 \$1362:3 20.494200
3 \$1362:1 \$1362:4 82.156100
4 \$1362:1 \$1362:5 34.925800
5 \$1362:1 \$1362:6 48.068200
6 \$1362:1 \$1362:7 65.091900
7 \$1362:1 \$1362:8 46.925300
8 \$1362:1 \$1362:9 65.705800
*END

*D_NET \$1363 2.900504
*CAP
1 \$1363:1 2.887607
2 \$1363:1 _023_ 0.003801
3 \$1363:1 _092_ 0.003801
4 \$1363:1 clknet_3_6__leaf_clk 0.005295
*RES
1 \$1363:1 \$1363:2 110.065100
2 \$1363:1 \$1363:3 20.494200
3 \$1363:1 \$1363:4 82.156100
4 \$1363:1 \$1363:5 34.925800
5 \$1363:1 \$1363:6 48.068200
6 \$1363:1 \$1363:7 65.091900
7 \$1363:1 \$1363:8 46.925300
8 \$1363:1 \$1363:9 65.705800
*END

*D_NET \$1364 2.894162
*CAP
1 \$1364:1 2.894162
*RES
1 \$1364:1 \$1364:2 110.065100
2 \$1364:1 \$1364:3 20.494200
3 \$1364:1 \$1364:4 82.156100
4 \$1364:1 \$1364:5 34.925800
5 \$1364:1 \$1364:6 48.068200
6 \$1364:1 \$1364:7 65.091900
7 \$1364:1 \$1364:8 46.925300
8 \$1364:1 \$1364:9 65.705800
*END

*D_NET \$1365 0.860079
*CAP
1 \$1365:1 0.844875
2 \$1365:1 _052_ 0.003801
3 \$1365:1 _131_ 0.003801
4 \$1365:1 _135_ 0.003801
5 \$1365:1 _137_ 0.003801
*RES
1 \$1365:1 \$1365:2 1.394800
2 \$1365:1 \$1365:3 0.963100
3 \$1365:1 \$1365:4 0.486400
4 \$1365:1 \$1365:5 0.022500
5 \$1365:1 \$1365:6 0.634600
6 \$1365:1 \$1365:7 0.306000
*END

*D_NET \$137 2.894162
*CAP
1 \$137:1 2.894162
*RES
1 \$137:1 \$137:2 110.065100
2 \$137:1 \$137:3 20.494200
3 \$137:1 \$137:4 82.156100
4 \$137:1 \$137:5 34.925800
5 \$137:1 \$137:6 48.068200
6 \$137:1 \$137:7 65.091900
7 \$137:1 \$137:8 46.925300
8 \$137:1 \$137:9 65.705800
*END

*D_NET \$1371 2.142986
*CAP
1 \$1371:1 2.117535
2 \$1371:1 OpMode[0] 0.006528
3 \$1371:1 _053_ 0.003801
4 \$1371:1 clknet_3_6__leaf_clk 0.007520
5 \$1371:1 txdp 0.003801
6 \$1371:1 u_line_state\/_0_ 0.003801
*RES
1 \$1371:1 \$1371:2 48.046900
2 \$1371:1 \$1371:3 13.008400
3 \$1371:1 \$1371:4 63.310200
4 \$1371:1 \$1371:5 23.606500
5 \$1371:1 \$1371:6 48.146100
6 \$1371:1 \$1371:7 47.329500
*END

*D_NET \$1372 0.850742
*CAP
1 \$1372:1 0.837670
2 \$1372:1 _053_ 0.005619
3 \$1372:1 clknet_0_clk 0.001498
4 \$1372:1 txdp 0.005619
5 \$1372:1 u_line_state\/_0_ 0.000336
*RES
1 \$1372:1 \$1372:2 27.599400
2 \$1372:1 \$1372:3 23.748600
3 \$1372:1 \$1372:4 22.372100
4 \$1372:1 \$1372:5 12.741300
5 \$1372:1 \$1372:6 22.897300
6 \$1372:1 \$1372:7 13.523900
*END

*D_NET \$1373 0.835178
*CAP
1 \$1373:1 0.830096
2 \$1373:1 _053_ 0.003512
3 \$1373:1 u_line_state\/_0_ 0.001570
*RES
1 \$1373:1 \$1373:2 16.527400
2 \$1373:1 \$1373:3 15.499600
3 \$1373:1 \$1373:4 10.523900
4 \$1373:1 \$1373:5 17.319100
5 \$1373:1 \$1373:6 10.298700
6 \$1373:1 \$1373:7 13.857700
*END

*D_NET \$1374 0.977521
*CAP
1 \$1374:1 0.969299
2 \$1374:1 clknet_3_6__leaf_clk 0.008222
*RES
1 \$1374:1 \$1374:2 17.105400
2 \$1374:1 \$1374:3 17.360700
3 \$1374:1 \$1374:4 13.771500
4 \$1374:1 \$1374:5 16.870200
5 \$1374:1 \$1374:6 8.058000
6 \$1374:1 \$1374:7 8.212700
*END

*D_NET \$1375 1.345699
*CAP
1 \$1375:1 1.340948
2 \$1375:1 line_state[0] 0.000950
3 \$1375:1 line_state[1] 0.003801
*RES
1 \$1375:1 \$1375:2 19.166400
2 \$1375:1 \$1375:3 31.720400
3 \$1375:1 \$1375:4 37.678600
4 \$1375:1 \$1375:5 18.380300
5 \$1375:1 \$1375:6 30.960700
6 \$1375:1 \$1375:7 37.481600
*END

*D_NET \$1376 2.146095
*CAP
1 \$1376:1 2.114323
2 \$1376:1 TxReady 0.003801
3 \$1376:1 _092_ 0.027971
*RES
1 \$1376:1 \$1376:2 48.046900
2 \$1376:1 \$1376:3 13.008400
3 \$1376:1 \$1376:4 63.310200
4 \$1376:1 \$1376:5 23.606500
5 \$1376:1 \$1376:6 48.146100
6 \$1376:1 \$1376:7 47.329500
*END

*D_NET \$1377 0.847077
*CAP
1 \$1377:1 0.841458
2 \$1377:1 TxReady 0.005619
*RES
1 \$1377:1 \$1377:2 27.599400
2 \$1377:1 \$1377:3 23.748600
3 \$1377:1 \$1377:4 22.372100
4 \$1377:1 \$1377:5 12.741300
5 \$1377:1 \$1377:6 22.897300
6 \$1377:1 \$1377:7 13.523900
*END

*D_NET \$1378 0.835442
*CAP
1 \$1378:1 0.829823
2 \$1378:1 TxReady 0.005619
*RES
1 \$1378:1 \$1378:2 16.527400
2 \$1378:1 \$1378:3 15.499600
3 \$1378:1 \$1378:4 10.523900
4 \$1378:1 \$1378:5 17.319100
5 \$1378:1 \$1378:6 10.298700
6 \$1378:1 \$1378:7 13.857700
*END

*D_NET \$1379 0.975347
*CAP
1 \$1379:1 0.971546
2 \$1379:1 byte_reg[5] 0.003801
*RES
1 \$1379:1 \$1379:2 17.105400
2 \$1379:1 \$1379:3 17.360700
3 \$1379:1 \$1379:4 13.771500
4 \$1379:1 \$1379:5 16.870200
5 \$1379:1 \$1379:6 8.058000
6 \$1379:1 \$1379:7 8.212700
*END

*D_NET \$138 2.134209
*CAP
1 \$138:1 2.126607
2 \$138:1 u_eop_detector\/_15_ 0.003801
3 \$138:1 u_eop_detector\/_23_ 0.003801
*RES
1 \$138:1 \$138:2 48.046900
2 \$138:1 \$138:3 13.008400
3 \$138:1 \$138:4 63.310200
4 \$138:1 \$138:5 23.606500
5 \$138:1 \$138:6 48.146100
6 \$138:1 \$138:7 47.329500
*END

*D_NET \$1380 1.346126
*CAP
1 \$1380:1 1.340507
2 \$1380:1 byte_reg[5] 0.005619
*RES
1 \$1380:1 \$1380:2 19.166400
2 \$1380:1 \$1380:3 31.720400
3 \$1380:1 \$1380:4 37.678600
4 \$1380:1 \$1380:5 18.380300
5 \$1380:1 \$1380:6 30.960700
6 \$1380:1 \$1380:7 37.481600
*END

*D_NET \$1381 2.151750
*CAP
1 \$1381:1 2.108477
2 \$1381:1 _061_ 0.028151
3 \$1381:1 _124_ 0.007520
4 \$1381:1 _125_ 0.003801
5 \$1381:1 tx_state[2] 0.003801
*RES
1 \$1381:1 \$1381:2 48.046900
2 \$1381:1 \$1381:3 13.008400
3 \$1381:1 \$1381:4 63.310200
4 \$1381:1 \$1381:5 23.606500
5 \$1381:1 \$1381:6 48.146100
6 \$1381:1 \$1381:7 47.329500
*END

*D_NET \$1382 0.853437
*CAP
1 \$1382:1 0.834885
2 \$1382:1 _031_ 0.009421
3 \$1382:1 _125_ 0.003512
4 \$1382:1 tx_state[2] 0.005619
*RES
1 \$1382:1 \$1382:2 27.599400
2 \$1382:1 \$1382:3 23.748600
3 \$1382:1 \$1382:4 22.372100
4 \$1382:1 \$1382:5 12.741300
5 \$1382:1 \$1382:6 22.897300
6 \$1382:1 \$1382:7 13.523900
*END

*D_NET \$1383 0.842847
*CAP
1 \$1383:1 0.822169
2 \$1383:1 _031_ 0.003512
3 \$1383:1 _125_ 0.005619
4 \$1383:1 first_byte 0.005928
5 \$1383:1 tx_state[2] 0.005619
*RES
1 \$1383:1 \$1383:2 16.527400
2 \$1383:1 \$1383:3 15.499600
3 \$1383:1 \$1383:4 10.523900
4 \$1383:1 \$1383:5 17.319100
5 \$1383:1 \$1383:6 10.298700
6 \$1383:1 \$1383:7 13.857700
*END

*D_NET \$1384 0.975347
*CAP
1 \$1384:1 0.971546
2 \$1384:1 _061_ 0.003801
*RES
1 \$1384:1 \$1384:2 17.105400
2 \$1384:1 \$1384:3 17.360700
3 \$1384:1 \$1384:4 13.771500
4 \$1384:1 \$1384:5 16.870200
5 \$1384:1 \$1384:6 8.058000
6 \$1384:1 \$1384:7 8.212700
*END

*D_NET \$1385 1.343363
*CAP
1 \$1385:1 1.343363
*RES
1 \$1385:1 \$1385:2 19.166400
2 \$1385:1 \$1385:3 31.720400
3 \$1385:1 \$1385:4 37.678600
4 \$1385:1 \$1385:5 18.380300
5 \$1385:1 \$1385:6 30.960700
6 \$1385:1 \$1385:7 37.481600
*END

*D_NET \$140 0.846206
*CAP
1 \$140:1 0.842358
2 \$140:1 u_eop_detector\/_04_ 0.000336
3 \$140:1 u_eop_detector\/_23_ 0.003512
*RES
1 \$140:1 \$140:2 27.599400
2 \$140:1 \$140:3 23.748600
3 \$140:1 \$140:4 22.372100
4 \$140:1 \$140:5 12.741300
5 \$140:1 \$140:6 22.897300
6 \$140:1 \$140:7 13.523900
*END

*D_NET \$141 0.849863
*CAP
1 \$141:1 0.814918
2 \$141:1 u_eop_detector\/_04_ 0.000341
3 \$141:1 u_eop_detector\/_15_ 0.028985
4 \$141:1 u_eop_detector\/_23_ 0.005619
*RES
1 \$141:1 \$141:2 16.527400
2 \$141:1 \$141:3 15.499600
3 \$141:1 \$141:4 10.523900
4 \$141:1 \$141:5 17.319100
5 \$141:1 \$141:6 10.298700
6 \$141:1 \$141:7 13.857700
*END

*D_NET \$142 0.973478
*CAP
1 \$142:1 0.973478
*RES
1 \$142:1 \$142:2 17.105400
2 \$142:1 \$142:3 17.360700
3 \$142:1 \$142:4 13.771500
4 \$142:1 \$142:5 16.870200
5 \$142:1 \$142:6 8.058000
6 \$142:1 \$142:7 8.212700
*END

*D_NET \$1426 2.138760
*CAP
1 \$1426:1 2.121903
2 \$1426:1 _027_ 0.003801
3 \$1426:1 _086_ 0.006528
4 \$1426:1 _089_ 0.006528
*RES
1 \$1426:1 \$1426:2 23.606500
2 \$1426:1 \$1426:3 48.046900
3 \$1426:1 \$1426:4 13.008400
4 \$1426:1 \$1426:5 63.310200
5 \$1426:1 \$1426:6 48.146100
6 \$1426:1 \$1426:7 47.329500
*END

*D_NET \$1427 2.161029
*CAP
1 \$1427:1 2.098887
2 \$1427:1 DataIn[6] 0.003801
3 \$1427:1 TxValid 0.003801
4 \$1427:1 _034_ 0.015183
5 \$1427:1 _096_ 0.006528
6 \$1427:1 rx_receiving 0.028151
7 \$1427:1 rx_shift[6] 0.004678
*RES
1 \$1427:1 \$1427:2 23.606500
2 \$1427:1 \$1427:3 48.046900
3 \$1427:1 \$1427:4 13.008400
4 \$1427:1 \$1427:5 63.310200
5 \$1427:1 \$1427:6 48.146100
6 \$1427:1 \$1427:7 47.329500
*END

*D_NET \$1429 2.157476
*CAP
1 \$1429:1 2.102560
2 \$1429:1 TxReady 0.028151
3 \$1429:1 _092_ 0.003801
4 \$1429:1 clknet_3_6__leaf_clk 0.022964
*RES
1 \$1429:1 \$1429:2 23.606500
2 \$1429:1 \$1429:3 48.046900
3 \$1429:1 \$1429:4 13.008400
4 \$1429:1 \$1429:5 63.310200
5 \$1429:1 \$1429:6 48.146100
6 \$1429:1 \$1429:7 47.329500
*END

*D_NET \$143 1.343363
*CAP
1 \$143:1 1.343363
*RES
1 \$143:1 \$143:2 19.166400
2 \$143:1 \$143:3 31.720400
3 \$143:1 \$143:4 37.678600
4 \$143:1 \$143:5 18.380300
5 \$143:1 \$143:6 30.960700
6 \$143:1 \$143:7 37.481600
*END

*D_NET \$1430 2.137419
*CAP
1 \$1430:1 2.123289
2 \$1430:1 _040_ 0.003801
3 \$1430:1 _052_ 0.003801
4 \$1430:1 byte_idx[2] 0.006528
*RES
1 \$1430:1 \$1430:2 23.606500
2 \$1430:1 \$1430:3 48.046900
3 \$1430:1 \$1430:4 13.008400
4 \$1430:1 \$1430:5 63.310200
5 \$1430:1 \$1430:6 48.146100
6 \$1430:1 \$1430:7 47.329500
*END

*D_NET \$1431 2.901729
*CAP
1 \$1431:1 2.886341
2 \$1431:1 clknet_3_2__leaf_clk 0.015388
*RES
1 \$1431:1 \$1431:2 110.065100
2 \$1431:1 \$1431:3 20.494200
3 \$1431:1 \$1431:4 82.156100
4 \$1431:1 \$1431:5 34.925800
5 \$1431:1 \$1431:6 48.068200
6 \$1431:1 \$1431:7 65.091900
7 \$1431:1 \$1431:8 46.925300
8 \$1431:1 \$1431:9 65.705800
*END

*D_NET \$1432 0.846183
*CAP
1 \$1432:1 0.842382
2 \$1432:1 _027_ 0.003801
*RES
1 \$1432:1 \$1432:2 27.599400
2 \$1432:1 \$1432:3 23.748600
3 \$1432:1 \$1432:4 22.372100
4 \$1432:1 \$1432:5 12.741300
5 \$1432:1 \$1432:6 22.897300
6 \$1432:1 \$1432:7 13.523900
*END

*D_NET \$1433 0.840541
*CAP
1 \$1433:1 0.824552
2 \$1433:1 _027_ 0.012188
3 \$1433:1 _086_ 0.003801
*RES
1 \$1433:1 \$1433:2 16.527400
2 \$1433:1 \$1433:3 15.499600
3 \$1433:1 \$1433:4 10.523900
4 \$1433:1 \$1433:5 17.319100
5 \$1433:1 \$1433:6 10.298700
6 \$1433:1 \$1433:7 13.857700
*END

*D_NET \$1434 0.979390
*CAP
1 \$1434:1 0.967367
2 \$1434:1 _084_ 0.003801
3 \$1434:1 _089_ 0.008222
*RES
1 \$1434:1 \$1434:2 17.360700
2 \$1434:1 \$1434:3 17.105400
3 \$1434:1 \$1434:4 13.771500
4 \$1434:1 \$1434:5 16.870200
5 \$1434:1 \$1434:6 8.058000
6 \$1434:1 \$1434:7 8.212700
*END

*D_NET \$1435 1.347995
*CAP
1 \$1435:1 1.338575
2 \$1435:1 _084_ 0.005619
3 \$1435:1 rx_shift[2] 0.003801
*RES
1 \$1435:1 \$1435:2 18.380300
2 \$1435:1 \$1435:3 30.960700
3 \$1435:1 \$1435:4 37.678600
4 \$1435:1 \$1435:5 19.166400
5 \$1435:1 \$1435:6 31.720400
6 \$1435:1 \$1435:7 37.481600
*END

*D_NET \$1438 2.898431
*CAP
1 \$1438:1 2.889751
2 \$1438:1 TxValid 0.004879
3 \$1438:1 clknet_3_3__leaf_clk 0.003801
*RES
1 \$1438:1 \$1438:2 110.065100
2 \$1438:1 \$1438:3 20.494200
3 \$1438:1 \$1438:4 82.156100
4 \$1438:1 \$1438:5 34.925800
5 \$1438:1 \$1438:6 48.068200
6 \$1438:1 \$1438:7 65.091900
7 \$1438:1 \$1438:8 46.925300
8 \$1438:1 \$1438:9 65.705800
*END

*D_NET \$1439 0.849840
*CAP
1 \$1439:1 0.838602
2 \$1439:1 DataIn[6] 0.005619
3 \$1439:1 TxValid 0.005619
*RES
1 \$1439:1 \$1439:2 27.599400
2 \$1439:1 \$1439:3 23.748600
3 \$1439:1 \$1439:4 22.372100
4 \$1439:1 \$1439:5 12.741300
5 \$1439:1 \$1439:6 22.897300
6 \$1439:1 \$1439:7 13.523900
*END

*D_NET \$1440 0.834751
*CAP
1 \$1440:1 0.830537
2 \$1440:1 DataIn[6] 0.003512
3 \$1440:1 rx_shift[6] 0.000702
*RES
1 \$1440:1 \$1440:2 16.527400
2 \$1440:1 \$1440:3 15.499600
3 \$1440:1 \$1440:4 10.523900
4 \$1440:1 \$1440:5 17.319100
5 \$1440:1 \$1440:6 10.298700
6 \$1440:1 \$1440:7 13.857700
*END

*D_NET \$1441 0.979390
*CAP
1 \$1441:1 0.967367
2 \$1441:1 _096_ 0.008222
3 \$1441:1 rx_receiving 0.003801
*RES
1 \$1441:1 \$1441:2 17.360700
2 \$1441:1 \$1441:3 17.105400
3 \$1441:1 \$1441:4 13.771500
4 \$1441:1 \$1441:5 16.870200
5 \$1441:1 \$1441:6 8.058000
6 \$1441:1 \$1441:7 8.212700
*END

*D_NET \$1442 1.345232
*CAP
1 \$1442:1 1.341431
2 \$1442:1 DataOut[1] 0.003801
*RES
1 \$1442:1 \$1442:2 18.380300
2 \$1442:1 \$1442:3 30.960700
3 \$1442:1 \$1442:4 37.678600
4 \$1442:1 \$1442:5 19.166400
5 \$1442:1 \$1442:6 31.720400
6 \$1442:1 \$1442:7 37.481600
*END

*D_NET \$1443 2.896031
*CAP
1 \$1443:1 2.892230
2 \$1443:1 _018_ 0.003801
*RES
1 \$1443:1 \$1443:2 110.065100
2 \$1443:1 \$1443:3 20.494200
3 \$1443:1 \$1443:4 82.156100
4 \$1443:1 \$1443:5 34.925800
5 \$1443:1 \$1443:6 48.068200
6 \$1443:1 \$1443:7 65.091900
7 \$1443:1 \$1443:8 46.925300
8 \$1443:1 \$1443:9 65.705800
*END

*D_NET \$1444 0.847806
*CAP
1 \$1444:1 0.840704
2 \$1444:1 _018_ 0.001483
3 \$1444:1 _092_ 0.005619
*RES
1 \$1444:1 \$1444:2 27.599400
2 \$1444:1 \$1444:3 23.748600
3 \$1444:1 \$1444:4 22.372100
4 \$1444:1 \$1444:5 12.741300
5 \$1444:1 \$1444:6 22.897300
6 \$1444:1 \$1444:7 13.523900
*END

*D_NET \$1445 0.835442
*CAP
1 \$1445:1 0.829823
2 \$1445:1 _092_ 0.005619
*RES
1 \$1445:1 \$1445:2 16.527400
2 \$1445:1 \$1445:3 15.499600
3 \$1445:1 \$1445:4 10.523900
4 \$1445:1 \$1445:5 17.319100
5 \$1445:1 \$1445:6 10.298700
6 \$1445:1 \$1445:7 13.857700
*END

*D_NET \$1446 0.975347
*CAP
1 \$1446:1 0.971546
2 \$1446:1 TxReady 0.003801
*RES
1 \$1446:1 \$1446:2 17.360700
2 \$1446:1 \$1446:3 17.105400
3 \$1446:1 \$1446:4 13.771500
4 \$1446:1 \$1446:5 16.870200
5 \$1446:1 \$1446:6 8.058000
6 \$1446:1 \$1446:7 8.212700
*END

*D_NET \$1447 1.343363
*CAP
1 \$1447:1 1.343363
*RES
1 \$1447:1 \$1447:2 18.380300
2 \$1447:1 \$1447:3 30.960700
3 \$1447:1 \$1447:4 37.678600
4 \$1447:1 \$1447:5 19.166400
5 \$1447:1 \$1447:6 31.720400
6 \$1447:1 \$1447:7 37.481600
*END

*D_NET \$1449 2.512711
*CAP
1 \$1449:1 2.508910
2 \$1449:1 byte_reg[0] 0.003801
*RES
1 \$1449:1 \$1449:2 17.460200
2 \$1449:1 \$1449:3 25.357500
3 \$1449:1 \$1449:4 17.679900
4 \$1449:1 \$1449:5 36.428000
5 \$1449:1 \$1449:6 36.954100
6 \$1449:1 \$1449:7 25.810100
7 \$1449:1 \$1449:8 17.679900
8 \$1449:1 \$1449:9 17.460200
9 \$1449:1 \$1449:10 36.428000
10 \$1449:1 \$1449:11 25.357500
11 \$1449:1 \$1449:12 25.810100
12 \$1449:1 \$1449:13 36.954100
*END

*D_NET \$1450 0.663341
*CAP
1 \$1450:1 0.648834
2 \$1450:1 _061_ 0.002743
3 \$1450:1 _125_ 0.003801
4 \$1450:1 tx_state[2] 0.007963
*RES
1 \$1450:1 \$1450:2 1.091700
2 \$1450:1 \$1450:3 1.091700
3 \$1450:1 \$1450:4 0.363900
4 \$1450:1 \$1450:5 0.363900
*END

*D_NET \$1451 2.894936
*CAP
1 \$1451:1 2.893364
2 \$1451:1 clknet_3_7__leaf_clk 0.001572
*RES
1 \$1451:1 \$1451:2 110.065100
2 \$1451:1 \$1451:3 20.494200
3 \$1451:1 \$1451:4 82.156100
4 \$1451:1 \$1451:5 34.925800
5 \$1451:1 \$1451:6 48.068200
6 \$1451:1 \$1451:7 65.091900
7 \$1451:1 \$1451:8 46.925300
8 \$1451:1 \$1451:9 65.705800
*END

*D_NET \$1452 0.847297
*CAP
1 \$1452:1 0.841231
2 \$1452:1 _040_ 0.000447
3 \$1452:1 _052_ 0.005619
*RES
1 \$1452:1 \$1452:2 27.599400
2 \$1452:1 \$1452:3 23.748600
3 \$1452:1 \$1452:4 22.372100
4 \$1452:1 \$1452:5 12.741300
5 \$1452:1 \$1452:6 22.897300
6 \$1452:1 \$1452:7 13.523900
*END

*D_NET \$1453 0.835442
*CAP
1 \$1453:1 0.829823
2 \$1453:1 _052_ 0.005619
*RES
1 \$1453:1 \$1453:2 16.527400
2 \$1453:1 \$1453:3 15.499600
3 \$1453:1 \$1453:4 10.523900
4 \$1453:1 \$1453:5 17.319100
5 \$1453:1 \$1453:6 10.298700
6 \$1453:1 \$1453:7 13.857700
*END

*D_NET \$1454 0.975179
*CAP
1 \$1454:1 0.971719
2 \$1454:1 byte_idx[2] 0.003460
*RES
1 \$1454:1 \$1454:2 17.360700
2 \$1454:1 \$1454:3 17.105400
3 \$1454:1 \$1454:4 13.771500
4 \$1454:1 \$1454:5 16.870200
5 \$1454:1 \$1454:6 8.058000
6 \$1454:1 \$1454:7 8.212700
*END

*D_NET \$1455 1.343363
*CAP
1 \$1455:1 1.343363
*RES
1 \$1455:1 \$1455:2 18.380300
2 \$1455:1 \$1455:3 30.960700
3 \$1455:1 \$1455:4 37.678600
4 \$1455:1 \$1455:5 19.166400
5 \$1455:1 \$1455:6 31.720400
6 \$1455:1 \$1455:7 37.481600
*END

*D_NET \$146 1.075176
*CAP
1 \$146:1 1.071212
2 \$146:1 u_eop_detector\/_12_ 0.003964
*RES
1 \$146:1 \$146:2 13.242300
2 \$146:1 \$146:3 21.267000
3 \$146:1 \$146:4 18.132100
4 \$146:1 \$146:5 12.683900
5 \$146:1 \$146:6 16.491100
*END

*D_NET \$1478 0.312302
*CAP
1 \$1478:1 0.312302
*RES
1 \$1478:1 \$1478:2 0.635800
2 \$1478:1 \$1478:3 0.035300
3 \$1478:1 \$1478:4 0.671100
*END

*D_NET \$148 2.904372
*CAP
1 \$148:1 2.883611
2 \$148:1 clknet_3_1__leaf_clk 0.008280
3 \$148:1 u_eop_detector\/_00_ 0.003801
4 \$148:1 u_eop_detector\/_10_ 0.004879
5 \$148:1 u_eop_detector\/_13_ 0.003801
*RES
1 \$148:1 \$148:2 110.065100
2 \$148:1 \$148:3 20.494200
3 \$148:1 \$148:4 82.156100
4 \$148:1 \$148:5 34.925800
5 \$148:1 \$148:6 48.068200
6 \$148:1 \$148:7 65.091900
7 \$148:1 \$148:8 46.925300
8 \$148:1 \$148:9 65.705800
*END

*D_NET \$149 2.146583
*CAP
1 \$149:1 2.113819
2 \$149:1 u_eop_detector\/_10_ 0.003801
3 \$149:1 u_eop_detector\/_13_ 0.028963
*RES
1 \$149:1 \$149:2 48.046900
2 \$149:1 \$149:3 13.008400
3 \$149:1 \$149:4 63.310200
4 \$149:1 \$149:5 23.606500
5 \$149:1 \$149:6 48.146100
6 \$149:1 \$149:7 47.329500
*END

*D_NET \$1493 0.312302
*CAP
1 \$1493:1 0.312302
*RES
1 \$1493:1 \$1493:2 0.635800
2 \$1493:1 \$1493:3 0.035300
3 \$1493:1 \$1493:4 0.671100
*END

*D_NET \$1494 2.904983
*CAP
1 \$1494:1 2.882978
2 \$1494:1 _025_ 0.003801
3 \$1494:1 clknet_3_2__leaf_clk 0.014403
4 \$1494:1 rx_shift[3] 0.003801
*RES
1 \$1494:1 \$1494:2 110.065100
2 \$1494:1 \$1494:3 20.494200
3 \$1494:1 \$1494:4 82.156100
4 \$1494:1 \$1494:5 34.925800
5 \$1494:1 \$1494:6 48.068200
6 \$1494:1 \$1494:7 65.091900
7 \$1494:1 \$1494:8 46.925300
8 \$1494:1 \$1494:9 65.705800
*END

*D_NET \$1495 0.314171
*CAP
1 \$1495:1 0.310370
2 \$1495:1 _085_ 0.003801
*RES
1 \$1495:1 \$1495:2 0.635800
2 \$1495:1 \$1495:3 0.035300
3 \$1495:1 \$1495:4 0.671100
*END

*D_NET \$1496 2.902169
*CAP
1 \$1496:1 2.885887
2 \$1496:1 DataIn[6] 0.003801
3 \$1496:1 TxValid 0.003801
4 \$1496:1 _096_ 0.004879
5 \$1496:1 rx_shift[6] 0.003801
*RES
1 \$1496:1 \$1496:2 110.065100
2 \$1496:1 \$1496:3 20.494200
3 \$1496:1 \$1496:4 82.156100
4 \$1496:1 \$1496:5 34.925800
5 \$1496:1 \$1496:6 48.068200
6 \$1496:1 \$1496:7 65.091900
7 \$1496:1 \$1496:8 46.925300
8 \$1496:1 \$1496:9 65.705800
*END

*D_NET \$1497 2.902169
*CAP
1 \$1497:1 2.885887
2 \$1497:1 OpMode[0] 0.004879
3 \$1497:1 _053_ 0.003801
4 \$1497:1 clknet_3_6__leaf_clk 0.003801
5 \$1497:1 txdp 0.003801
*RES
1 \$1497:1 \$1497:2 110.065100
2 \$1497:1 \$1497:3 20.494200
3 \$1497:1 \$1497:4 82.156100
4 \$1497:1 \$1497:5 34.925800
5 \$1497:1 \$1497:6 48.068200
6 \$1497:1 \$1497:7 65.091900
7 \$1497:1 \$1497:8 46.925300
8 \$1497:1 \$1497:9 65.705800
*END

*D_NET \$1498 2.896365
*CAP
1 \$1498:1 2.891886
2 \$1498:1 clknet_3_7__leaf_clk 0.004479
*RES
1 \$1498:1 \$1498:2 110.065100
2 \$1498:1 \$1498:3 20.494200
3 \$1498:1 \$1498:4 82.156100
4 \$1498:1 \$1498:5 34.925800
5 \$1498:1 \$1498:6 48.068200
6 \$1498:1 \$1498:7 65.091900
7 \$1498:1 \$1498:8 46.925300
8 \$1498:1 \$1498:9 65.705800
*END

*D_NET \$1499 0.282285
*CAP
1 \$1499:1 0.282285
*RES
1 \$1499:1 \$1499:2 0.300900
2 \$1499:1 \$1499:3 0.311400
3 \$1499:1 \$1499:4 0.300900
4 \$1499:1 \$1499:5 0.292000
*END

*D_NET \$150 0.847806
*CAP
1 \$150:1 0.840704
2 \$150:1 u_eop_detector\/_00_ 0.001483
3 \$150:1 u_eop_detector\/_10_ 0.005619
*RES
1 \$150:1 \$150:2 27.599400
2 \$150:1 \$150:3 23.748600
3 \$150:1 \$150:4 22.372100
4 \$150:1 \$150:5 12.741300
5 \$150:1 \$150:6 22.897300
6 \$150:1 \$150:7 13.523900
*END

*D_NET \$1500 1.052731
*CAP
1 \$1500:1 1.012138
2 \$1500:1 _078_ 0.003801
3 \$1500:1 _092_ 0.003801
4 \$1500:1 byte_idx[0] 0.013508
5 \$1500:1 clknet_3_7__leaf_clk 0.019483
*RES
1 \$1500:1 \$1500:2 1.034100
2 \$1500:1 \$1500:3 1.039100
3 \$1500:1 \$1500:4 0.728400
4 \$1500:1 \$1500:5 0.501700
5 \$1500:1 \$1500:6 0.790700
6 \$1500:1 \$1500:7 0.531100
*END

*D_NET \$1501 3.135795
*CAP
1 \$1501:1 3.132302
2 \$1501:1 byte_reg[2] 0.003388
3 \$1501:1 clknet_3_7__leaf_clk 0.000105
*RES
1 \$1501:1 \$1501:2 38.647500
2 \$1501:1 \$1501:3 118.828700
3 \$1501:1 \$1501:4 84.628100
4 \$1501:1 \$1501:5 89.847000
5 \$1501:1 \$1501:6 139.105500
6 \$1501:1 \$1501:7 55.115800
*END

*D_NET \$1502 1.170431
*CAP
1 \$1502:1 1.157457
2 \$1502:1 _092_ 0.009173
3 \$1502:1 clknet_3_7__leaf_clk 0.003801
*RES
1 \$1502:1 \$1502:2 15.591400
2 \$1502:1 \$1502:3 15.822300
3 \$1502:1 \$1502:4 14.701800
4 \$1502:1 \$1502:5 14.938000
5 \$1502:1 \$1502:6 10.362400
6 \$1502:1 \$1502:7 10.820300
*END

*D_NET \$1503 1.078738
*CAP
1 \$1503:1 1.078738
*RES
1 \$1503:1 \$1503:2 29.119900
2 \$1503:1 \$1503:3 32.052400
3 \$1503:1 \$1503:4 42.378100
4 \$1503:1 \$1503:5 35.182000
*END

*D_NET \$1504 1.081243
*CAP
1 \$1504:1 1.081243
*RES
1 \$1504:1 \$1504:2 0.957600
2 \$1504:1 \$1504:3 0.943400
3 \$1504:1 \$1504:4 0.452600
4 \$1504:1 \$1504:5 0.670100
5 \$1504:1 \$1504:6 0.449900
6 \$1504:1 \$1504:7 0.698900
*END

*D_NET \$1505 0.361186
*CAP
1 \$1505:1 0.361186
*RES
1 \$1505:1 \$1505:2 0.399500
2 \$1505:1 \$1505:3 0.377400
3 \$1505:1 \$1505:4 0.382200
4 \$1505:1 \$1505:5 0.406100
*END

*D_NET \$1506 2.894162
*CAP
1 \$1506:1 2.894162
*RES
1 \$1506:1 \$1506:2 110.065100
2 \$1506:1 \$1506:3 20.494200
3 \$1506:1 \$1506:4 82.156100
4 \$1506:1 \$1506:5 34.925800
5 \$1506:1 \$1506:6 48.068200
6 \$1506:1 \$1506:7 65.091900
7 \$1506:1 \$1506:8 46.925300
8 \$1506:1 \$1506:9 65.705800
*END

*D_NET \$151 0.832679
*CAP
1 \$151:1 0.832679
*RES
1 \$151:1 \$151:2 16.527400
2 \$151:1 \$151:3 15.499600
3 \$151:1 \$151:4 10.523900
4 \$151:1 \$151:5 17.319100
5 \$151:1 \$151:6 10.298700
6 \$151:1 \$151:7 13.857700
*END

*D_NET \$1510 2.146526
*CAP
1 \$1510:1 2.113877
2 \$1510:1 _096_ 0.004678
3 \$1510:1 rx_shift[3] 0.027971
*RES
1 \$1510:1 \$1510:2 48.046900
2 \$1510:1 \$1510:3 13.008400
3 \$1510:1 \$1510:4 63.310200
4 \$1510:1 \$1510:5 23.606500
5 \$1510:1 \$1510:6 48.146100
6 \$1510:1 \$1510:7 47.329500
*END

*D_NET \$1511 0.845043
*CAP
1 \$1511:1 0.843560
2 \$1511:1 _025_ 0.001483
*RES
1 \$1511:1 \$1511:2 27.599400
2 \$1511:1 \$1511:3 23.748600
3 \$1511:1 \$1511:4 22.372100
4 \$1511:1 \$1511:5 12.741300
5 \$1511:1 \$1511:6 22.897300
6 \$1511:1 \$1511:7 13.523900
*END

*D_NET \$1512 0.833024
*CAP
1 \$1512:1 0.832322
2 \$1512:1 _096_ 0.000702
*RES
1 \$1512:1 \$1512:2 16.527400
2 \$1512:1 \$1512:3 15.499600
3 \$1512:1 \$1512:4 10.523900
4 \$1512:1 \$1512:5 17.319100
5 \$1512:1 \$1512:6 10.298700
6 \$1512:1 \$1512:7 13.857700
*END

*D_NET \$1513 0.973478
*CAP
1 \$1513:1 0.973478
*RES
1 \$1513:1 \$1513:2 17.105400
2 \$1513:1 \$1513:3 17.360700
3 \$1513:1 \$1513:4 13.771500
4 \$1513:1 \$1513:5 16.870200
5 \$1513:1 \$1513:6 8.058000
6 \$1513:1 \$1513:7 8.212700
*END

*D_NET \$1514 1.343363
*CAP
1 \$1514:1 1.343363
*RES
1 \$1514:1 \$1514:2 19.166400
2 \$1514:1 \$1514:3 31.720400
3 \$1514:1 \$1514:4 37.678600
4 \$1514:1 \$1514:5 18.380300
5 \$1514:1 \$1514:6 30.960700
6 \$1514:1 \$1514:7 37.481600
*END

*D_NET \$1516 2.145814
*CAP
1 \$1516:1 2.114612
2 \$1516:1 DataIn[6] 0.008739
3 \$1516:1 DataOut[1] 0.006528
4 \$1516:1 _035_ 0.003801
5 \$1516:1 _096_ 0.003801
6 \$1516:1 rx_receiving 0.003801
7 \$1516:1 rx_shift[6] 0.004532
*RES
1 \$1516:1 \$1516:2 48.046900
2 \$1516:1 \$1516:3 13.008400
3 \$1516:1 \$1516:4 63.310200
4 \$1516:1 \$1516:5 23.606500
5 \$1516:1 \$1516:6 48.146100
6 \$1516:1 \$1516:7 47.329500
*END

*D_NET \$1517 0.852603
*CAP
1 \$1517:1 0.835746
2 \$1517:1 _096_ 0.005619
3 \$1517:1 rx_receiving 0.005619
4 \$1517:1 rx_shift[6] 0.005619
*RES
1 \$1517:1 \$1517:2 27.599400
2 \$1517:1 \$1517:3 23.748600
3 \$1517:1 \$1517:4 22.372100
4 \$1517:1 \$1517:5 12.741300
5 \$1517:1 \$1517:6 22.897300
6 \$1517:1 \$1517:7 13.523900
*END

*D_NET \$1518 0.834406
*CAP
1 \$1518:1 0.830894
2 \$1518:1 rx_receiving 0.003512
*RES
1 \$1518:1 \$1518:2 16.527400
2 \$1518:1 \$1518:3 15.499600
3 \$1518:1 \$1518:4 10.523900
4 \$1518:1 \$1518:5 17.319100
5 \$1518:1 \$1518:6 10.298700
6 \$1518:1 \$1518:7 13.857700
*END

*D_NET \$1519 0.979457
*CAP
1 \$1519:1 0.967298
2 \$1519:1 DataOut[1] 0.008222
3 \$1519:1 DataOut[4] 0.000136
4 \$1519:1 RxError 0.003801
*RES
1 \$1519:1 \$1519:2 17.105400
2 \$1519:1 \$1519:3 17.360700
3 \$1519:1 \$1519:4 13.771500
4 \$1519:1 \$1519:5 16.870200
5 \$1519:1 \$1519:6 8.058000
6 \$1519:1 \$1519:7 8.212700
*END

*D_NET \$152 0.973478
*CAP
1 \$152:1 0.973478
*RES
1 \$152:1 \$152:2 17.105400
2 \$152:1 \$152:3 17.360700
3 \$152:1 \$152:4 13.771500
4 \$152:1 \$152:5 16.870200
5 \$152:1 \$152:6 8.058000
6 \$152:1 \$152:7 8.212700
*END

*D_NET \$1520 1.350758
*CAP
1 \$1520:1 1.335719
2 \$1520:1 DataIn[7] 0.003801
3 \$1520:1 DataOut[4] 0.005619
4 \$1520:1 RxError 0.005619
*RES
1 \$1520:1 \$1520:2 19.166400
2 \$1520:1 \$1520:3 31.720400
3 \$1520:1 \$1520:4 37.678600
4 \$1520:1 \$1520:5 18.380300
5 \$1520:1 \$1520:6 30.960700
6 \$1520:1 \$1520:7 37.481600
*END

*D_NET \$1521 2.145456
*CAP
1 \$1521:1 2.114984
2 \$1521:1 OpMode[0] 0.003801
3 \$1521:1 _053_ 0.007603
4 \$1521:1 txdp 0.008739
5 \$1521:1 u_line_state\/_1_ 0.003801
6 \$1521:1 u_line_state\/_2_ 0.006528
*RES
1 \$1521:1 \$1521:2 48.046900
2 \$1521:1 \$1521:3 13.008400
3 \$1521:1 \$1521:4 63.310200
4 \$1521:1 \$1521:5 23.606500
5 \$1521:1 \$1521:6 48.146100
6 \$1521:1 \$1521:7 47.329500
*END

*D_NET \$1522 0.847297
*CAP
1 \$1522:1 0.841231
2 \$1522:1 OpMode[0] 0.005619
3 \$1522:1 u_line_state\/_1_ 0.000447
*RES
1 \$1522:1 \$1522:2 27.599400
2 \$1522:1 \$1522:3 23.748600
3 \$1522:1 \$1522:4 22.372100
4 \$1522:1 \$1522:5 12.741300
5 \$1522:1 \$1522:6 22.897300
6 \$1522:1 \$1522:7 13.523900
*END

*D_NET \$1523 0.832679
*CAP
1 \$1523:1 0.832679
*RES
1 \$1523:1 \$1523:2 16.527400
2 \$1523:1 \$1523:3 15.499600
3 \$1523:1 \$1523:4 10.523900
4 \$1523:1 \$1523:5 17.319100
5 \$1523:1 \$1523:6 10.298700
6 \$1523:1 \$1523:7 13.857700
*END

*D_NET \$1524 0.979152
*CAP
1 \$1524:1 0.967613
2 \$1524:1 _052_ 0.000136
3 \$1524:1 line_state[0] 0.003801
4 \$1524:1 line_state[1] 0.003801
5 \$1524:1 txdm 0.003801
*RES
1 \$1524:1 \$1524:2 17.105400
2 \$1524:1 \$1524:3 17.360700
3 \$1524:1 \$1524:4 13.771500
4 \$1524:1 \$1524:5 16.870200
5 \$1524:1 \$1524:6 8.058000
6 \$1524:1 \$1524:7 8.212700
*END

*D_NET \$1525 1.351367
*CAP
1 \$1525:1 1.335090
2 \$1525:1 OpMode[1] 0.003801
3 \$1525:1 _052_ 0.005619
4 \$1525:1 line_state[0] 0.001238
5 \$1525:1 txdm 0.005619
*RES
1 \$1525:1 \$1525:2 19.166400
2 \$1525:1 \$1525:3 31.720400
3 \$1525:1 \$1525:4 37.678600
4 \$1525:1 \$1525:5 18.380300
5 \$1525:1 \$1525:6 30.960700
6 \$1525:1 \$1525:7 37.481600
*END

*D_NET \$1526 2.146183
*CAP
1 \$1526:1 2.114231
2 \$1526:1 _015_ 0.003801
3 \$1526:1 _092_ 0.028151
*RES
1 \$1526:1 \$1526:2 48.046900
2 \$1526:1 \$1526:3 13.008400
3 \$1526:1 \$1526:4 63.310200
4 \$1526:1 \$1526:5 23.606500
5 \$1526:1 \$1526:6 48.146100
6 \$1526:1 \$1526:7 47.329500
*END

*D_NET \$1527 0.844534
*CAP
1 \$1527:1 0.844087
2 \$1527:1 _015_ 0.000447
*RES
1 \$1527:1 \$1527:2 27.599400
2 \$1527:1 \$1527:3 23.748600
3 \$1527:1 \$1527:4 22.372100
4 \$1527:1 \$1527:5 12.741300
5 \$1527:1 \$1527:6 22.897300
6 \$1527:1 \$1527:7 13.523900
*END

*D_NET \$1528 0.832679
*CAP
1 \$1528:1 0.832679
*RES
1 \$1528:1 \$1528:2 16.527400
2 \$1528:1 \$1528:3 15.499600
3 \$1528:1 \$1528:4 10.523900
4 \$1528:1 \$1528:5 17.319100
5 \$1528:1 \$1528:6 10.298700
6 \$1528:1 \$1528:7 13.857700
*END

*D_NET \$1529 0.975347
*CAP
1 \$1529:1 0.971546
2 \$1529:1 _092_ 0.003801
*RES
1 \$1529:1 \$1529:2 17.105400
2 \$1529:1 \$1529:3 17.360700
3 \$1529:1 \$1529:4 13.771500
4 \$1529:1 \$1529:5 16.870200
5 \$1529:1 \$1529:6 8.058000
6 \$1529:1 \$1529:7 8.212700
*END

*D_NET \$153 1.343830
*CAP
1 \$153:1 1.342880
2 \$153:1 bus_reset 0.000950
*RES
1 \$153:1 \$153:2 19.166400
2 \$153:1 \$153:3 31.720400
3 \$153:1 \$153:4 37.678600
4 \$153:1 \$153:5 18.380300
5 \$153:1 \$153:6 30.960700
6 \$153:1 \$153:7 37.481600
*END

*D_NET \$1530 1.343830
*CAP
1 \$1530:1 1.342880
2 \$1530:1 byte_reg[6] 0.000950
*RES
1 \$1530:1 \$1530:2 19.166400
2 \$1530:1 \$1530:3 31.720400
3 \$1530:1 \$1530:4 37.678600
4 \$1530:1 \$1530:5 18.380300
5 \$1530:1 \$1530:6 30.960700
6 \$1530:1 \$1530:7 37.481600
*END

*D_NET \$1532 0.248673
*CAP
1 \$1532:1 0.248673
*RES
1 \$1532:1 \$1532:2 0.254100
2 \$1532:1 \$1532:3 0.259800
3 \$1532:1 \$1532:4 0.262700
4 \$1532:1 \$1532:5 0.256500
*END

*D_NET \$1533 0.241548
*CAP
1 \$1533:1 0.241548
*RES
1 \$1533:1 \$1533:2 0.252900
2 \$1533:1 \$1533:3 0.252900
3 \$1533:1 \$1533:4 0.256700
4 \$1533:1 \$1533:5 0.256700
*END

*D_NET \$1535 2.137948
*CAP
1 \$1535:1 2.122743
2 \$1535:1 _022_ 0.003801
3 \$1535:1 _052_ 0.003801
4 \$1535:1 byte_reg[2] 0.007603
*RES
1 \$1535:1 \$1535:2 48.046900
2 \$1535:1 \$1535:3 13.008400
3 \$1535:1 \$1535:4 63.310200
4 \$1535:1 \$1535:5 23.606500
5 \$1535:1 \$1535:6 48.146100
6 \$1535:1 \$1535:7 47.329500
*END

*D_NET \$1536 0.847077
*CAP
1 \$1536:1 0.841458
2 \$1536:1 _052_ 0.005619
*RES
1 \$1536:1 \$1536:2 27.599400
2 \$1536:1 \$1536:3 23.748600
3 \$1536:1 \$1536:4 22.372100
4 \$1536:1 \$1536:5 12.741300
5 \$1536:1 \$1536:6 22.897300
6 \$1536:1 \$1536:7 13.523900
*END

*D_NET \$1537 0.835442
*CAP
1 \$1537:1 0.829823
2 \$1537:1 _052_ 0.005619
*RES
1 \$1537:1 \$1537:2 16.527400
2 \$1537:1 \$1537:3 15.499600
3 \$1537:1 \$1537:4 10.523900
4 \$1537:1 \$1537:5 17.319100
5 \$1537:1 \$1537:6 10.298700
6 \$1537:1 \$1537:7 13.857700
*END

*D_NET \$1538 0.973478
*CAP
1 \$1538:1 0.973478
*RES
1 \$1538:1 \$1538:2 17.105400
2 \$1538:1 \$1538:3 17.360700
3 \$1538:1 \$1538:4 13.771500
4 \$1538:1 \$1538:5 16.870200
5 \$1538:1 \$1538:6 8.058000
6 \$1538:1 \$1538:7 8.212700
*END

*D_NET \$1539 1.343363
*CAP
1 \$1539:1 1.343363
*RES
1 \$1539:1 \$1539:2 19.166400
2 \$1539:1 \$1539:3 31.720400
3 \$1539:1 \$1539:4 37.678600
4 \$1539:1 \$1539:5 18.380300
5 \$1539:1 \$1539:6 30.960700
6 \$1539:1 \$1539:7 37.481600
*END

*D_NET \$1580 2.832508
*CAP
1 \$1580:1 2.812284
2 \$1580:1 OpMode[0] 0.013554
3 \$1580:1 _053_ 0.002869
4 \$1580:1 u_line_state\/_1_ 0.003801
*RES
1 \$1580:1 \$1580:2 11.304300
2 \$1580:1 \$1580:3 33.459400
3 \$1580:1 \$1580:4 16.518000
4 \$1580:1 \$1580:5 24.564700
5 \$1580:1 \$1580:6 36.539100
6 \$1580:1 \$1580:7 19.428000
7 \$1580:1 \$1580:8 15.301800
8 \$1580:1 \$1580:9 27.284300
9 \$1580:1 \$1580:10 14.668000
10 \$1580:1 \$1580:11 21.768900
11 \$1580:1 \$1580:12 30.301000
12 \$1580:1 \$1580:13 32.182600
13 \$1580:1 \$1580:14 23.157400
14 \$1580:1 \$1580:15 39.343800
*END

*D_NET \$1581 2.898065
*CAP
1 \$1581:1 2.890130
2 \$1581:1 clknet_3_2__leaf_clk 0.007935
*RES
1 \$1581:1 \$1581:2 110.065100
2 \$1581:1 \$1581:3 20.494200
3 \$1581:1 \$1581:4 82.156100
4 \$1581:1 \$1581:5 34.925800
5 \$1581:1 \$1581:6 48.068200
6 \$1581:1 \$1581:7 65.091900
7 \$1581:1 \$1581:8 46.925300
8 \$1581:1 \$1581:9 65.705800
*END

*D_NET \$1582 2.137851
*CAP
1 \$1582:1 2.122844
2 \$1582:1 _028_ 0.006528
3 \$1582:1 _086_ 0.003801
4 \$1582:1 _118_ 0.004678
*RES
1 \$1582:1 \$1582:2 23.606500
2 \$1582:1 \$1582:3 48.046900
3 \$1582:1 \$1582:4 13.008400
4 \$1582:1 \$1582:5 63.310200
5 \$1582:1 \$1582:6 48.146100
6 \$1582:1 \$1582:7 47.329500
*END

*D_NET \$1583 0.846261
*CAP
1 \$1583:1 0.842302
2 \$1583:1 _028_ 0.000447
3 \$1583:1 _086_ 0.003512
*RES
1 \$1583:1 \$1583:2 27.599400
2 \$1583:1 \$1583:3 23.748600
3 \$1583:1 \$1583:4 22.372100
4 \$1583:1 \$1583:5 12.741300
5 \$1583:1 \$1583:6 22.897300
6 \$1583:1 \$1583:7 13.523900
*END

*D_NET \$1584 0.835787
*CAP
1 \$1584:1 0.829466
2 \$1584:1 _086_ 0.005619
3 \$1584:1 _118_ 0.000702
*RES
1 \$1584:1 \$1584:2 16.527400
2 \$1584:1 \$1584:3 15.499600
3 \$1584:1 \$1584:4 10.523900
4 \$1584:1 \$1584:5 17.319100
5 \$1584:1 \$1584:6 10.298700
6 \$1584:1 \$1584:7 13.857700
*END

*D_NET \$1585 0.975637
*CAP
1 \$1585:1 0.971247
2 \$1585:1 rx_shift[2] 0.004390
*RES
1 \$1585:1 \$1585:2 17.360700
2 \$1585:1 \$1585:3 17.105400
3 \$1585:1 \$1585:4 13.771500
4 \$1585:1 \$1585:5 16.870200
5 \$1585:1 \$1585:6 8.058000
6 \$1585:1 \$1585:7 8.212700
*END

*D_NET \$1586 1.343830
*CAP
1 \$1586:1 1.342880
2 \$1586:1 rx_shift[1] 0.000950
*RES
1 \$1586:1 \$1586:2 18.380300
2 \$1586:1 \$1586:3 30.960700
3 \$1586:1 \$1586:4 37.678600
4 \$1586:1 \$1586:5 19.166400
5 \$1586:1 \$1586:6 31.720400
6 \$1586:1 \$1586:7 37.481600
*END

*D_NET \$1588 1.705416
*CAP
1 \$1588:1 1.701615
2 \$1588:1 rx_shift[2] 0.003801
*RES
1 \$1588:1 \$1588:2 16.448400
2 \$1588:1 \$1588:3 23.905800
3 \$1588:1 \$1588:4 16.161900
4 \$1588:1 \$1588:5 23.905800
5 \$1588:1 \$1588:6 22.317000
6 \$1588:1 \$1588:7 17.875500
7 \$1588:1 \$1588:8 25.339300
8 \$1588:1 \$1588:9 15.064400
*END

*D_NET \$1589 1.119489
*CAP
1 \$1589:1 1.119489
*RES
1 \$1589:1 \$1589:2 28.301000
2 \$1589:1 \$1589:3 35.373400
3 \$1589:1 \$1589:4 31.303900
4 \$1589:1 \$1589:5 31.869700
*END

*D_NET \$1590 2.894162
*CAP
1 \$1590:1 2.894162
*RES
1 \$1590:1 \$1590:2 110.065100
2 \$1590:1 \$1590:3 20.494200
3 \$1590:1 \$1590:4 82.156100
4 \$1590:1 \$1590:5 34.925800
5 \$1590:1 \$1590:6 48.068200
6 \$1590:1 \$1590:7 65.091900
7 \$1590:1 \$1590:8 46.925300
8 \$1590:1 \$1590:9 65.705800
*END

*D_NET \$1591 2.137937
*CAP
1 \$1591:1 2.122754
2 \$1591:1 _014_ 0.015183
*RES
1 \$1591:1 \$1591:2 23.606500
2 \$1591:1 \$1591:3 48.046900
3 \$1591:1 \$1591:4 13.008400
4 \$1591:1 \$1591:5 63.310200
5 \$1591:1 \$1591:6 48.146100
6 \$1591:1 \$1591:7 47.329500
*END

*D_NET \$1592 0.844314
*CAP
1 \$1592:1 0.844314
*RES
1 \$1592:1 \$1592:2 27.599400
2 \$1592:1 \$1592:3 23.748600
3 \$1592:1 \$1592:4 22.372100
4 \$1592:1 \$1592:5 12.741300
5 \$1592:1 \$1592:6 22.897300
6 \$1592:1 \$1592:7 13.523900
*END

*D_NET \$1593 0.832679
*CAP
1 \$1593:1 0.832679
*RES
1 \$1593:1 \$1593:2 16.527400
2 \$1593:1 \$1593:3 15.499600
3 \$1593:1 \$1593:4 10.523900
4 \$1593:1 \$1593:5 17.319100
5 \$1593:1 \$1593:6 10.298700
6 \$1593:1 \$1593:7 13.857700
*END

*D_NET \$1594 0.973478
*CAP
1 \$1594:1 0.973478
*RES
1 \$1594:1 \$1594:2 17.360700
2 \$1594:1 \$1594:3 17.105400
3 \$1594:1 \$1594:4 13.771500
4 \$1594:1 \$1594:5 16.870200
5 \$1594:1 \$1594:6 8.058000
6 \$1594:1 \$1594:7 8.212700
*END

*D_NET \$1595 1.345232
*CAP
1 \$1595:1 1.341431
2 \$1595:1 rx_shift[5] 0.003801
*RES
1 \$1595:1 \$1595:2 18.380300
2 \$1595:1 \$1595:3 30.960700
3 \$1595:1 \$1595:4 37.678600
4 \$1595:1 \$1595:5 19.166400
5 \$1595:1 \$1595:6 31.720400
6 \$1595:1 \$1595:7 37.481600
*END

*D_NET \$1596 1.714224
*CAP
1 \$1596:1 1.692512
2 \$1596:1 _096_ 0.003801
3 \$1596:1 rx_receiving 0.014110
4 \$1596:1 rx_shift[6] 0.003801
*RES
1 \$1596:1 \$1596:2 16.448400
2 \$1596:1 \$1596:3 23.905800
3 \$1596:1 \$1596:4 16.161900
4 \$1596:1 \$1596:5 23.905800
5 \$1596:1 \$1596:6 22.317000
6 \$1596:1 \$1596:7 17.875500
7 \$1596:1 \$1596:8 25.339300
8 \$1596:1 \$1596:9 15.064400
*END

*D_NET \$1597 1.148209
*CAP
1 \$1597:1 1.089805
2 \$1597:1 DataOut[1] 0.058404
*RES
1 \$1597:1 \$1597:2 28.301000
2 \$1597:1 \$1597:3 35.373400
3 \$1597:1 \$1597:4 31.303900
4 \$1597:1 \$1597:5 31.869700
*END

*D_NET \$1627 0.318566
*CAP
1 \$1627:1 0.305828
2 \$1627:1 _097_ 0.006883
3 \$1627:1 line_state[1] 0.005855
*RES
1 \$1627:1 \$1627:2 0.650500
2 \$1627:1 \$1627:3 0.020600
3 \$1627:1 \$1627:4 0.671100
*END

*D_NET \$1628 0.312302
*CAP
1 \$1628:1 0.312302
*RES
1 \$1628:1 \$1628:2 0.650500
2 \$1628:1 \$1628:3 0.020600
3 \$1628:1 \$1628:4 0.671100
*END

*D_NET \$1629 0.315687
*CAP
1 \$1629:1 0.308804
2 \$1629:1 _090_ 0.006883
*RES
1 \$1629:1 \$1629:2 0.650500
2 \$1629:1 \$1629:3 0.020600
3 \$1629:1 \$1629:4 0.671100
*END

*D_NET \$1630 0.317556
*CAP
1 \$1630:1 0.306872
2 \$1630:1 _101_ 0.006883
3 \$1630:1 clknet_3_7__leaf_clk 0.003801
*RES
1 \$1630:1 \$1630:2 0.650500
2 \$1630:1 \$1630:3 0.020600
3 \$1630:1 \$1630:4 0.671100
*END

*D_NET \$1650 2.896031
*CAP
1 \$1650:1 2.892230
2 \$1650:1 clknet_3_2__leaf_clk 0.003801
*RES
1 \$1650:1 \$1650:2 110.065100
2 \$1650:1 \$1650:3 20.494200
3 \$1650:1 \$1650:4 82.156100
4 \$1650:1 \$1650:5 34.925800
5 \$1650:1 \$1650:6 48.068200
6 \$1650:1 \$1650:7 65.091900
7 \$1650:1 \$1650:8 46.925300
8 \$1650:1 \$1650:9 65.705800
*END

*D_NET \$1652 0.835787
*CAP
1 \$1652:1 0.829466
2 \$1652:1 _086_ 0.005619
3 \$1652:1 _118_ 0.000702
*RES
1 \$1652:1 \$1652:2 16.527400
2 \$1652:1 \$1652:3 15.499600
3 \$1652:1 \$1652:4 10.523900
4 \$1652:1 \$1652:5 17.319100
5 \$1652:1 \$1652:6 10.298700
6 \$1652:1 \$1652:7 13.857700
*END

*D_NET \$1653 0.977521
*CAP
1 \$1653:1 0.969299
2 \$1653:1 rx_shift[2] 0.008222
*RES
1 \$1653:1 \$1653:2 17.105400
2 \$1653:1 \$1653:3 17.360700
3 \$1653:1 \$1653:4 13.771500
4 \$1653:1 \$1653:5 16.870200
5 \$1653:1 \$1653:6 8.058000
6 \$1653:1 \$1653:7 8.212700
*END

*D_NET \$1654 1.345330
*CAP
1 \$1654:1 1.341330
2 \$1654:1 _044_ 0.000199
3 \$1654:1 rx_shift[1] 0.003801
*RES
1 \$1654:1 \$1654:2 19.166400
2 \$1654:1 \$1654:3 31.720400
3 \$1654:1 \$1654:4 37.678600
4 \$1654:1 \$1654:5 18.380300
5 \$1654:1 \$1654:6 30.960700
6 \$1654:1 \$1654:7 37.481600
*END

*D_NET \$1656 2.896031
*CAP
1 \$1656:1 2.892230
2 \$1656:1 _043_ 0.003801
*RES
1 \$1656:1 \$1656:2 110.065100
2 \$1656:1 \$1656:3 20.494200
3 \$1656:1 \$1656:4 82.156100
4 \$1656:1 \$1656:5 34.925800
5 \$1656:1 \$1656:6 48.068200
6 \$1656:1 \$1656:7 65.091900
7 \$1656:1 \$1656:8 46.925300
8 \$1656:1 \$1656:9 65.705800
*END

*D_NET \$1657 0.835939
*CAP
1 \$1657:1 0.829309
2 \$1657:1 DataIn[1] 0.005928
3 \$1657:1 _096_ 0.000702
*RES
1 \$1657:1 \$1657:2 16.527400
2 \$1657:1 \$1657:3 15.499600
3 \$1657:1 \$1657:4 10.523900
4 \$1657:1 \$1657:5 17.319100
5 \$1657:1 \$1657:6 10.298700
6 \$1657:1 \$1657:7 13.857700
*END

*D_NET \$1658 0.973478
*CAP
1 \$1658:1 0.973478
*RES
1 \$1658:1 \$1658:2 17.105400
2 \$1658:1 \$1658:3 17.360700
3 \$1658:1 \$1658:4 13.771500
4 \$1658:1 \$1658:5 16.870200
5 \$1658:1 \$1658:6 8.058000
6 \$1658:1 \$1658:7 8.212700
*END

*D_NET \$1659 1.345232
*CAP
1 \$1659:1 1.341431
2 \$1659:1 clknet_3_2__leaf_clk 0.003801
*RES
1 \$1659:1 \$1659:2 19.166400
2 \$1659:1 \$1659:3 31.720400
3 \$1659:1 \$1659:4 37.678600
4 \$1659:1 \$1659:5 18.380300
5 \$1659:1 \$1659:6 30.960700
6 \$1659:1 \$1659:7 37.481600
*END

*D_NET \$1660 1.705416
*CAP
1 \$1660:1 1.701615
2 \$1660:1 rx_shift[3] 0.003801
*RES
1 \$1660:1 \$1660:2 16.448400
2 \$1660:1 \$1660:3 23.905800
3 \$1660:1 \$1660:4 16.161900
4 \$1660:1 \$1660:5 23.905800
5 \$1660:1 \$1660:6 22.317000
6 \$1660:1 \$1660:7 17.875500
7 \$1660:1 \$1660:8 25.339300
8 \$1660:1 \$1660:9 15.064400
*END

*D_NET \$1662 1.121358
*CAP
1 \$1662:1 1.117557
2 \$1662:1 DataIn[2] 0.003801
*RES
1 \$1662:1 \$1662:2 28.301000
2 \$1662:1 \$1662:3 35.373400
3 \$1662:1 \$1662:4 31.303900
4 \$1662:1 \$1662:5 31.869700
*END

*D_NET \$1663 2.897900
*CAP
1 \$1663:1 2.890298
2 \$1663:1 clknet_3_2__leaf_clk 0.003801
3 \$1663:1 rx_shift[4] 0.003801
*RES
1 \$1663:1 \$1663:2 110.065100
2 \$1663:1 \$1663:3 20.494200
3 \$1663:1 \$1663:4 82.156100
4 \$1663:1 \$1663:5 34.925800
5 \$1663:1 \$1663:6 48.068200
6 \$1663:1 \$1663:7 65.091900
7 \$1663:1 \$1663:8 46.925300
8 \$1663:1 \$1663:9 65.705800
*END

*D_NET \$1665 0.832679
*CAP
1 \$1665:1 0.832679
*RES
1 \$1665:1 \$1665:2 16.527400
2 \$1665:1 \$1665:3 15.499600
3 \$1665:1 \$1665:4 10.523900
4 \$1665:1 \$1665:5 17.319100
5 \$1665:1 \$1665:6 10.298700
6 \$1665:1 \$1665:7 13.857700
*END

*D_NET \$1666 0.973478
*CAP
1 \$1666:1 0.973478
*RES
1 \$1666:1 \$1666:2 17.105400
2 \$1666:1 \$1666:3 17.360700
3 \$1666:1 \$1666:4 13.771500
4 \$1666:1 \$1666:5 16.870200
5 \$1666:1 \$1666:6 8.058000
6 \$1666:1 \$1666:7 8.212700
*END

*D_NET \$1667 1.343363
*CAP
1 \$1667:1 1.343363
*RES
1 \$1667:1 \$1667:2 19.166400
2 \$1667:1 \$1667:3 31.720400
3 \$1667:1 \$1667:4 37.678600
4 \$1667:1 \$1667:5 18.380300
5 \$1667:1 \$1667:6 30.960700
6 \$1667:1 \$1667:7 37.481600
*END

*D_NET \$1668 1.714587
*CAP
1 \$1668:1 1.692137
2 \$1668:1 TxValid 0.014848
3 \$1668:1 clknet_3_3__leaf_clk 0.003801
4 \$1668:1 rx_shift[5] 0.003801
*RES
1 \$1668:1 \$1668:2 16.448400
2 \$1668:1 \$1668:3 23.905800
3 \$1668:1 \$1668:4 16.161900
4 \$1668:1 \$1668:5 23.905800
5 \$1668:1 \$1668:6 22.317000
6 \$1668:1 \$1668:7 17.875500
7 \$1668:1 \$1668:8 25.339300
8 \$1668:1 \$1668:9 15.064400
*END

*D_NET \$1670 1.144655
*CAP
1 \$1670:1 1.093479
2 \$1670:1 DataIn[4] 0.003801
3 \$1670:1 DataIn[6] 0.005643
4 \$1670:1 TxValid 0.003801
5 \$1670:1 _096_ 0.037931
*RES
1 \$1670:1 \$1670:2 28.301000
2 \$1670:1 \$1670:3 35.373400
3 \$1670:1 \$1670:4 31.303900
4 \$1670:1 \$1670:5 31.869700
*END

*D_NET \$1671 2.909252
*CAP
1 \$1671:1 2.878567
2 \$1671:1 DataIn[5] 0.003801
3 \$1671:1 DataOut[1] 0.003801
4 \$1671:1 RxError 0.004879
5 \$1671:1 _096_ 0.003801
6 \$1671:1 rx_receiving 0.014403
*RES
1 \$1671:1 \$1671:2 110.065100
2 \$1671:1 \$1671:3 20.494200
3 \$1671:1 \$1671:4 82.156100
4 \$1671:1 \$1671:5 34.925800
5 \$1671:1 \$1671:6 48.068200
6 \$1671:1 \$1671:7 65.091900
7 \$1671:1 \$1671:8 46.925300
8 \$1671:1 \$1671:9 65.705800
*END

*D_NET \$1672 0.837169
*CAP
1 \$1672:1 0.828038
2 \$1672:1 DataIn[7] 0.005619
3 \$1672:1 DataOut[4] 0.003512
*RES
1 \$1672:1 \$1672:2 16.527400
2 \$1672:1 \$1672:3 15.499600
3 \$1672:1 \$1672:4 10.523900
4 \$1672:1 \$1672:5 17.319100
5 \$1672:1 \$1672:6 10.298700
6 \$1672:1 \$1672:7 13.857700
*END

*D_NET \$1673 0.978293
*CAP
1 \$1673:1 0.968501
2 \$1673:1 DataIn[1] 0.001570
3 \$1673:1 clk 0.008222
*RES
1 \$1673:1 \$1673:2 17.105400
2 \$1673:1 \$1673:3 17.360700
3 \$1673:1 \$1673:4 13.771500
4 \$1673:1 \$1673:5 16.870200
5 \$1673:1 \$1673:6 8.058000
6 \$1673:1 \$1673:7 8.212700
*END

*D_NET \$1674 1.346439
*CAP
1 \$1674:1 1.340183
2 \$1674:1 DataIn[1] 0.001505
3 \$1674:1 DataIn[5] 0.000950
4 \$1674:1 txdp 0.003801
*RES
1 \$1674:1 \$1674:2 19.166400
2 \$1674:1 \$1674:3 31.720400
3 \$1674:1 \$1674:4 37.678600
4 \$1674:1 \$1674:5 18.380300
5 \$1674:1 \$1674:6 30.960700
6 \$1674:1 \$1674:7 37.481600
*END

*D_NET \$1684 2.903114
*CAP
1 \$1684:1 2.884910
2 \$1684:1 _092_ 0.014403
3 \$1684:1 clknet_3_7__leaf_clk 0.003801
*RES
1 \$1684:1 \$1684:2 110.065100
2 \$1684:1 \$1684:3 20.494200
3 \$1684:1 \$1684:4 82.156100
4 \$1684:1 \$1684:5 34.925800
5 \$1684:1 \$1684:6 48.068200
6 \$1684:1 \$1684:7 65.091900
7 \$1684:1 \$1684:8 46.925300
8 \$1684:1 \$1684:9 65.705800
*END

*D_NET \$1686 0.832679
*CAP
1 \$1686:1 0.832679
*RES
1 \$1686:1 \$1686:2 16.527400
2 \$1686:1 \$1686:3 15.499600
3 \$1686:1 \$1686:4 10.523900
4 \$1686:1 \$1686:5 17.319100
5 \$1686:1 \$1686:6 10.298700
6 \$1686:1 \$1686:7 13.857700
*END

*D_NET \$1687 0.973478
*CAP
1 \$1687:1 0.973478
*RES
1 \$1687:1 \$1687:2 17.105400
2 \$1687:1 \$1687:3 17.360700
3 \$1687:1 \$1687:4 13.771500
4 \$1687:1 \$1687:5 16.870200
5 \$1687:1 \$1687:6 8.058000
6 \$1687:1 \$1687:7 8.212700
*END

*D_NET \$1688 1.343363
*CAP
1 \$1688:1 1.343363
*RES
1 \$1688:1 \$1688:2 19.166400
2 \$1688:1 \$1688:3 31.720400
3 \$1688:1 \$1688:4 37.678600
4 \$1688:1 \$1688:5 18.380300
5 \$1688:1 \$1688:6 30.960700
6 \$1688:1 \$1688:7 37.481600
*END

*D_NET \$1690 0.312302
*CAP
1 \$1690:1 0.312302
*RES
1 \$1690:1 \$1690:2 0.650500
2 \$1690:1 \$1690:3 0.020600
3 \$1690:1 \$1690:4 0.671100
*END

*D_NET \$1692 2.140388
*CAP
1 \$1692:1 2.120222
2 \$1692:1 _044_ 0.005159
3 \$1692:1 _086_ 0.003801
4 \$1692:1 _118_ 0.004678
5 \$1692:1 rx_shift[2] 0.006528
*RES
1 \$1692:1 \$1692:2 48.046900
2 \$1692:1 \$1692:3 13.008400
3 \$1692:1 \$1692:4 63.310200
4 \$1692:1 \$1692:5 23.606500
5 \$1692:1 \$1692:6 48.146100
6 \$1692:1 \$1692:7 47.329500
*END

*D_NET \$1693 0.846206
*CAP
1 \$1693:1 0.842358
2 \$1693:1 _044_ 0.000336
3 \$1693:1 _086_ 0.003512
*RES
1 \$1693:1 \$1693:2 27.599400
2 \$1693:1 \$1693:3 23.748600
3 \$1693:1 \$1693:4 22.372100
4 \$1693:1 \$1693:5 12.741300
5 \$1693:1 \$1693:6 22.897300
6 \$1693:1 \$1693:7 13.523900
*END

*D_NET \$1694 2.139792
*CAP
1 \$1694:1 2.120838
2 \$1694:1 _043_ 0.014276
3 \$1694:1 _096_ 0.004678
*RES
1 \$1694:1 \$1694:2 48.046900
2 \$1694:1 \$1694:3 13.008400
3 \$1694:1 \$1694:4 63.310200
4 \$1694:1 \$1694:5 23.606500
5 \$1694:1 \$1694:6 48.146100
6 \$1694:1 \$1694:7 47.329500
*END

*D_NET \$1695 0.844314
*CAP
1 \$1695:1 0.844314
*RES
1 \$1695:1 \$1695:2 27.599400
2 \$1695:1 \$1695:3 23.748600
3 \$1695:1 \$1695:4 22.372100
4 \$1695:1 \$1695:5 12.741300
5 \$1695:1 \$1695:6 22.897300
6 \$1695:1 \$1695:7 13.523900
*END

*D_NET \$1697 2.135550
*CAP
1 \$1697:1 2.125221
2 \$1697:1 _039_ 0.003801
3 \$1697:1 _096_ 0.006528
*RES
1 \$1697:1 \$1697:2 48.046900
2 \$1697:1 \$1697:3 13.008400
3 \$1697:1 \$1697:4 63.310200
4 \$1697:1 \$1697:5 23.606500
5 \$1697:1 \$1697:6 48.146100
6 \$1697:1 \$1697:7 47.329500
*END

*D_NET \$1698 0.844314
*CAP
1 \$1698:1 0.844314
*RES
1 \$1698:1 \$1698:2 27.599400
2 \$1698:1 \$1698:3 23.748600
3 \$1698:1 \$1698:4 22.372100
4 \$1698:1 \$1698:5 12.741300
5 \$1698:1 \$1698:6 22.897300
6 \$1698:1 \$1698:7 13.523900
*END

*D_NET \$1700 2.156887
*CAP
1 \$1700:1 2.103167
2 \$1700:1 DataIn[7] 0.011619
3 \$1700:1 DataOut[1] 0.027971
4 \$1700:1 DataOut[4] 0.003801
5 \$1700:1 RxError 0.003801
6 \$1700:1 clk 0.006528
*RES
1 \$1700:1 \$1700:2 48.046900
2 \$1700:1 \$1700:3 13.008400
3 \$1700:1 \$1700:4 63.310200
4 \$1700:1 \$1700:5 23.606500
5 \$1700:1 \$1700:6 48.146100
6 \$1700:1 \$1700:7 47.329500
*END

*D_NET \$1701 0.851567
*CAP
1 \$1701:1 0.836817
2 \$1701:1 DataIn[7] 0.003512
3 \$1701:1 DataOut[4] 0.005619
4 \$1701:1 RxError 0.005619
*RES
1 \$1701:1 \$1701:2 27.599400
2 \$1701:1 \$1701:3 23.748600
3 \$1701:1 \$1701:4 22.372100
4 \$1701:1 \$1701:5 12.741300
5 \$1701:1 \$1701:6 22.897300
6 \$1701:1 \$1701:7 13.523900
*END

*D_NET \$1703 2.137779
*CAP
1 \$1703:1 2.122918
2 \$1703:1 _038_ 0.003801
3 \$1703:1 _052_ 0.004532
4 \$1703:1 _130_ 0.006528
*RES
1 \$1703:1 \$1703:2 48.046900
2 \$1703:1 \$1703:3 13.008400
3 \$1703:1 \$1703:4 63.310200
4 \$1703:1 \$1703:5 23.606500
5 \$1703:1 \$1703:6 48.146100
6 \$1703:1 \$1703:7 47.329500
*END

*D_NET \$1704 0.844656
*CAP
1 \$1704:1 0.843961
2 \$1704:1 _038_ 0.000447
3 \$1704:1 _052_ 0.000248
*RES
1 \$1704:1 \$1704:2 27.599400
2 \$1704:1 \$1704:3 23.748600
3 \$1704:1 \$1704:4 22.372100
4 \$1704:1 \$1704:5 12.741300
5 \$1704:1 \$1704:6 22.897300
6 \$1704:1 \$1704:7 13.523900
*END

*D_NET \$1747 1.705416
*CAP
1 \$1747:1 1.701615
2 \$1747:1 rx_shift[1] 0.003801
*RES
1 \$1747:1 \$1747:2 16.448400
2 \$1747:1 \$1747:3 23.905800
3 \$1747:1 \$1747:4 16.161900
4 \$1747:1 \$1747:5 23.905800
5 \$1747:1 \$1747:6 22.317000
6 \$1747:1 \$1747:7 17.875500
7 \$1747:1 \$1747:8 25.339300
8 \$1747:1 \$1747:9 15.064400
*END

*D_NET \$1748 1.121358
*CAP
1 \$1748:1 1.117557
2 \$1748:1 DataIn[0] 0.003801
*RES
1 \$1748:1 \$1748:2 28.301000
2 \$1748:1 \$1748:3 35.373400
3 \$1748:1 \$1748:4 31.303900
4 \$1748:1 \$1748:5 31.869700
*END

*D_NET \$1749 2.135550
*CAP
1 \$1749:1 2.125221
2 \$1749:1 DataIn[2] 0.006528
3 \$1749:1 _042_ 0.003801
*RES
1 \$1749:1 \$1749:2 23.606500
2 \$1749:1 \$1749:3 48.046900
3 \$1749:1 \$1749:4 13.008400
4 \$1749:1 \$1749:5 63.310200
5 \$1749:1 \$1749:6 48.146100
6 \$1749:1 \$1749:7 47.329500
*END

*D_NET \$1750 1.705416
*CAP
1 \$1750:1 1.701615
2 \$1750:1 rx_shift[4] 0.003801
*RES
1 \$1750:1 \$1750:2 16.448400
2 \$1750:1 \$1750:3 23.905800
3 \$1750:1 \$1750:4 16.161900
4 \$1750:1 \$1750:5 23.905800
5 \$1750:1 \$1750:6 22.317000
6 \$1750:1 \$1750:7 17.875500
7 \$1750:1 \$1750:8 25.339300
8 \$1750:1 \$1750:9 15.064400
*END

*D_NET \$1751 1.121358
*CAP
1 \$1751:1 1.117557
2 \$1751:1 _096_ 0.003801
*RES
1 \$1751:1 \$1751:2 28.301000
2 \$1751:1 \$1751:3 35.373400
3 \$1751:1 \$1751:4 31.303900
4 \$1751:1 \$1751:5 31.869700
*END

*D_NET \$1752 2.140980
*CAP
1 \$1752:1 2.119610
2 \$1752:1 DataIn[0] 0.002562
3 \$1752:1 DataIn[4] 0.006528
4 \$1752:1 DataIn[6] 0.004678
5 \$1752:1 TxValid 0.003801
6 \$1752:1 _037_ 0.003801
*RES
1 \$1752:1 \$1752:2 23.606500
2 \$1752:1 \$1752:3 48.046900
3 \$1752:1 \$1752:4 13.008400
4 \$1752:1 \$1752:5 63.310200
5 \$1752:1 \$1752:6 48.146100
6 \$1752:1 \$1752:7 47.329500
*END

*D_NET \$1754 2.134641
*CAP
1 \$1754:1 2.126162
2 \$1754:1 DataOut[6] 0.004678
3 \$1754:1 _024_ 0.003801
*RES
1 \$1754:1 \$1754:2 23.606500
2 \$1754:1 \$1754:3 48.046900
3 \$1754:1 \$1754:4 13.008400
4 \$1754:1 \$1754:5 63.310200
5 \$1754:1 \$1754:6 48.146100
6 \$1754:1 \$1754:7 47.329500
*END

*D_NET \$1755 2.136434
*CAP
1 \$1755:1 2.124308
2 \$1755:1 _020_ 0.003801
3 \$1755:1 _101_ 0.004524
4 \$1755:1 byte_reg[3] 0.003801
*RES
1 \$1755:1 \$1755:2 23.606500
2 \$1755:1 \$1755:3 48.046900
3 \$1755:1 \$1755:4 13.008400
4 \$1755:1 \$1755:5 63.310200
5 \$1755:1 \$1755:6 48.146100
6 \$1755:1 \$1755:7 47.329500
*END

*D_NET \$1756 2.896031
*CAP
1 \$1756:1 2.892230
2 \$1756:1 clknet_3_2__leaf_clk 0.003801
*RES
1 \$1756:1 \$1756:2 110.065100
2 \$1756:1 \$1756:3 20.494200
3 \$1756:1 \$1756:4 82.156100
4 \$1756:1 \$1756:5 34.925800
5 \$1756:1 \$1756:6 48.068200
6 \$1756:1 \$1756:7 65.091900
7 \$1756:1 \$1756:8 46.925300
8 \$1756:1 \$1756:9 65.705800
*END

*D_NET \$1757 0.844534
*CAP
1 \$1757:1 0.844087
2 \$1757:1 _042_ 0.000447
*RES
1 \$1757:1 \$1757:2 27.599400
2 \$1757:1 \$1757:3 23.748600
3 \$1757:1 \$1757:4 22.372100
4 \$1757:1 \$1757:5 12.741300
5 \$1757:1 \$1757:6 22.897300
6 \$1757:1 \$1757:7 13.523900
*END

*D_NET \$1758 0.832679
*CAP
1 \$1758:1 0.832679
*RES
1 \$1758:1 \$1758:2 16.527400
2 \$1758:1 \$1758:3 15.499600
3 \$1758:1 \$1758:4 10.523900
4 \$1758:1 \$1758:5 17.319100
5 \$1758:1 \$1758:6 10.298700
6 \$1758:1 \$1758:7 13.857700
*END

*D_NET \$1759 0.973478
*CAP
1 \$1759:1 0.973478
*RES
1 \$1759:1 \$1759:2 17.360700
2 \$1759:1 \$1759:3 17.105400
3 \$1759:1 \$1759:4 13.771500
4 \$1759:1 \$1759:5 16.870200
5 \$1759:1 \$1759:6 8.058000
6 \$1759:1 \$1759:7 8.212700
*END

*D_NET \$1760 1.343363
*CAP
1 \$1760:1 1.343363
*RES
1 \$1760:1 \$1760:2 18.380300
2 \$1760:1 \$1760:3 30.960700
3 \$1760:1 \$1760:4 37.678600
4 \$1760:1 \$1760:5 19.166400
5 \$1760:1 \$1760:6 31.720400
6 \$1760:1 \$1760:7 37.481600
*END

*D_NET \$1762 2.896031
*CAP
1 \$1762:1 2.892230
2 \$1762:1 clknet_3_3__leaf_clk 0.003801
*RES
1 \$1762:1 \$1762:2 110.065100
2 \$1762:1 \$1762:3 20.494200
3 \$1762:1 \$1762:4 82.156100
4 \$1762:1 \$1762:5 34.925800
5 \$1762:1 \$1762:6 48.068200
6 \$1762:1 \$1762:7 65.091900
7 \$1762:1 \$1762:8 46.925300
8 \$1762:1 \$1762:9 65.705800
*END

*D_NET \$1763 0.846261
*CAP
1 \$1763:1 0.842302
2 \$1763:1 DataIn[0] 0.003512
3 \$1763:1 _037_ 0.000447
*RES
1 \$1763:1 \$1763:2 27.599400
2 \$1763:1 \$1763:3 23.748600
3 \$1763:1 \$1763:4 22.372100
4 \$1763:1 \$1763:5 12.741300
5 \$1763:1 \$1763:6 22.897300
6 \$1763:1 \$1763:7 13.523900
*END

*D_NET \$1764 0.850040
*CAP
1 \$1764:1 0.814734
2 \$1764:1 DataIn[0] 0.005619
3 \$1764:1 DataIn[6] 0.000702
4 \$1764:1 TxValid 0.028985
*RES
1 \$1764:1 \$1764:2 16.527400
2 \$1764:1 \$1764:3 15.499600
3 \$1764:1 \$1764:4 10.523900
4 \$1764:1 \$1764:5 17.319100
5 \$1764:1 \$1764:6 10.298700
6 \$1764:1 \$1764:7 13.857700
*END

*D_NET \$1765 0.984775
*CAP
1 \$1765:1 0.961802
2 \$1765:1 DataIn[6] 0.008997
3 \$1765:1 rx_receiving 0.013976
*RES
1 \$1765:1 \$1765:2 17.360700
2 \$1765:1 \$1765:3 17.105400
3 \$1765:1 \$1765:4 13.771500
4 \$1765:1 \$1765:5 16.870200
5 \$1765:1 \$1765:6 8.058000
6 \$1765:1 \$1765:7 8.212700
*END

*D_NET \$1766 1.349491
*CAP
1 \$1766:1 1.337029
2 \$1766:1 rx_receiving 0.012462
*RES
1 \$1766:1 \$1766:2 18.380300
2 \$1766:1 \$1766:3 30.960700
3 \$1766:1 \$1766:4 37.678600
4 \$1766:1 \$1766:5 19.166400
5 \$1766:1 \$1766:6 31.720400
6 \$1766:1 \$1766:7 37.481600
*END

*D_NET \$1769 2.903114
*CAP
1 \$1769:1 2.884910
2 \$1769:1 TxReady 0.014403
3 \$1769:1 clknet_3_7__leaf_clk 0.003801
*RES
1 \$1769:1 \$1769:2 110.065100
2 \$1769:1 \$1769:3 20.494200
3 \$1769:1 \$1769:4 82.156100
4 \$1769:1 \$1769:5 34.925800
5 \$1769:1 \$1769:6 48.068200
6 \$1769:1 \$1769:7 65.091900
7 \$1769:1 \$1769:8 46.925300
8 \$1769:1 \$1769:9 65.705800
*END

*D_NET \$1770 0.846183
*CAP
1 \$1770:1 0.842382
2 \$1770:1 _024_ 0.003801
*RES
1 \$1770:1 \$1770:2 27.599400
2 \$1770:1 \$1770:3 23.748600
3 \$1770:1 \$1770:4 22.372100
4 \$1770:1 \$1770:5 12.741300
5 \$1770:1 \$1770:6 22.897300
6 \$1770:1 \$1770:7 13.523900
*END

*D_NET \$1771 0.833024
*CAP
1 \$1771:1 0.832322
2 \$1771:1 DataOut[6] 0.000702
*RES
1 \$1771:1 \$1771:2 16.527400
2 \$1771:1 \$1771:3 15.499600
3 \$1771:1 \$1771:4 10.523900
4 \$1771:1 \$1771:5 17.319100
5 \$1771:1 \$1771:6 10.298700
6 \$1771:1 \$1771:7 13.857700
*END

*D_NET \$1772 0.973545
*CAP
1 \$1772:1 0.973409
2 \$1772:1 byte_reg[0] 0.000136
*RES
1 \$1772:1 \$1772:2 17.360700
2 \$1772:1 \$1772:3 17.105400
3 \$1772:1 \$1772:4 13.771500
4 \$1772:1 \$1772:5 16.870200
5 \$1772:1 \$1772:6 8.058000
6 \$1772:1 \$1772:7 8.212700
*END

*D_NET \$1773 1.347996
*CAP
1 \$1773:1 1.338575
2 \$1773:1 byte_reg[0] 0.009421
*RES
1 \$1773:1 \$1773:2 18.380300
2 \$1773:1 \$1773:3 30.960700
3 \$1773:1 \$1773:4 37.678600
4 \$1773:1 \$1773:5 19.166400
5 \$1773:1 \$1773:6 31.720400
6 \$1773:1 \$1773:7 37.481600
*END

*D_NET \$1774 2.896031
*CAP
1 \$1774:1 2.892230
2 \$1774:1 clknet_3_7__leaf_clk 0.003801
*RES
1 \$1774:1 \$1774:2 110.065100
2 \$1774:1 \$1774:3 20.494200
3 \$1774:1 \$1774:4 82.156100
4 \$1774:1 \$1774:5 34.925800
5 \$1774:1 \$1774:6 48.068200
6 \$1774:1 \$1774:7 65.091900
7 \$1774:1 \$1774:8 46.925300
8 \$1774:1 \$1774:9 65.705800
*END

*D_NET \$1775 0.849028
*CAP
1 \$1775:1 0.839442
2 \$1775:1 byte_reg[3] 0.009586
*RES
1 \$1775:1 \$1775:2 27.599400
2 \$1775:1 \$1775:3 23.748600
3 \$1775:1 \$1775:4 22.372100
4 \$1775:1 \$1775:5 12.741300
5 \$1775:1 \$1775:6 22.897300
6 \$1775:1 \$1775:7 13.523900
*END

*D_NET \$1776 0.832679
*CAP
1 \$1776:1 0.832679
*RES
1 \$1776:1 \$1776:2 16.527400
2 \$1776:1 \$1776:3 15.499600
3 \$1776:1 \$1776:4 10.523900
4 \$1776:1 \$1776:5 17.319100
5 \$1776:1 \$1776:6 10.298700
6 \$1776:1 \$1776:7 13.857700
*END

*D_NET \$1777 0.973478
*CAP
1 \$1777:1 0.973478
*RES
1 \$1777:1 \$1777:2 17.360700
2 \$1777:1 \$1777:3 17.105400
3 \$1777:1 \$1777:4 13.771500
4 \$1777:1 \$1777:5 16.870200
5 \$1777:1 \$1777:6 8.058000
6 \$1777:1 \$1777:7 8.212700
*END

*D_NET \$1778 1.343363
*CAP
1 \$1778:1 1.343363
*RES
1 \$1778:1 \$1778:2 18.380300
2 \$1778:1 \$1778:3 30.960700
3 \$1778:1 \$1778:4 37.678600
4 \$1778:1 \$1778:5 19.166400
5 \$1778:1 \$1778:6 31.720400
6 \$1778:1 \$1778:7 37.481600
*END

*D_NET \$179 2.139288
*CAP
1 \$179:1 2.121357
2 \$179:1 dec_data_strobe 0.003801
3 \$179:1 u_sync_detector\/_01_ 0.003801
4 \$179:1 u_sync_detector\/_10_ 0.006528
5 \$179:1 u_sync_detector\/_12_ 0.003801
*RES
1 \$179:1 \$179:2 23.606500
2 \$179:1 \$179:3 48.046900
3 \$179:1 \$179:4 13.008400
4 \$179:1 \$179:5 63.310200
5 \$179:1 \$179:6 48.146100
6 \$179:1 \$179:7 47.329500
*END

*D_NET \$1798 0.312302
*CAP
1 \$1798:1 0.312302
*RES
1 \$1798:1 \$1798:2 0.650500
2 \$1798:1 \$1798:3 0.020600
3 \$1798:1 \$1798:4 0.671100
*END

*D_NET \$180 0.850655
*CAP
1 \$180:1 0.814099
2 \$180:1 dec_data_strobe 0.005619
3 \$180:1 u_sync_detector\/_01_ 0.001952
4 \$180:1 u_sync_detector\/_12_ 0.028985
*RES
1 \$180:1 \$180:2 16.527400
2 \$180:1 \$180:3 15.499600
3 \$180:1 \$180:4 10.523900
4 \$180:1 \$180:5 17.319100
5 \$180:1 \$180:6 10.298700
6 \$180:1 \$180:7 13.857700
*END

*D_NET \$181 1.352627
*CAP
1 \$181:1 1.333787
2 \$181:1 u_sync_detector\/_09_ 0.005619
3 \$181:1 u_sync_detector\/_11_ 0.003801
4 \$181:1 u_sync_detector\/match[0] 0.003801
5 \$181:1 u_sync_detector\/match[1] 0.005619
*RES
1 \$181:1 \$181:2 18.380300
2 \$181:1 \$181:3 30.960700
3 \$181:1 \$181:4 37.678600
4 \$181:1 \$181:5 19.166400
5 \$181:1 \$181:6 31.720400
6 \$181:1 \$181:7 37.481600
*END

*D_NET \$185 2.517854
*CAP
1 \$185:1 2.503596
2 \$185:1 u_eop_detector\/se0_count[5] 0.014258
*RES
1 \$185:1 \$185:2 25.357500
2 \$185:1 \$185:3 17.460200
3 \$185:1 \$185:4 17.679900
4 \$185:1 \$185:5 36.428000
5 \$185:1 \$185:6 36.954100
6 \$185:1 \$185:7 17.460200
7 \$185:1 \$185:8 17.679900
8 \$185:1 \$185:9 25.810100
9 \$185:1 \$185:10 25.357500
10 \$185:1 \$185:11 36.428000
11 \$185:1 \$185:12 25.810100
12 \$185:1 \$185:13 36.954100
*END

*D_NET \$186 2.504949
*CAP
1 \$186:1 2.501148
2 \$186:1 u_stuffer\/_01_ 0.003801
*RES
1 \$186:1 \$186:2 13.078200
2 \$186:1 \$186:3 48.907600
3 \$186:1 \$186:4 62.186300
4 \$186:1 \$186:5 18.638700
5 \$186:1 \$186:6 48.835100
6 \$186:1 \$186:7 47.117200
*END

*D_NET \$187 0.997821
*CAP
1 \$187:1 0.997821
*RES
1 \$187:1 \$187:2 17.112100
2 \$187:1 \$187:3 17.002900
3 \$187:1 \$187:4 10.221100
4 \$187:1 \$187:5 8.966800
5 \$187:1 \$187:6 13.642900
6 \$187:1 \$187:7 15.110100
*END

*D_NET \$188 1.559051
*CAP
1 \$188:1 1.540732
2 \$188:1 _053_ 0.006776
3 \$188:1 u_stuffer\/_12_ 0.011543
*RES
1 \$188:1 \$188:2 19.438700
2 \$188:1 \$188:3 33.281900
3 \$188:1 \$188:4 35.783200
4 \$188:1 \$188:5 37.455900
5 \$188:1 \$188:6 33.998000
6 \$188:1 \$188:7 15.586800
7 \$188:1 \$188:8 17.373600
*END

*D_NET \$189 2.896031
*CAP
1 \$189:1 2.892230
2 \$189:1 clknet_3_0__leaf_clk 0.003801
*RES
1 \$189:1 \$189:2 110.065100
2 \$189:1 \$189:3 20.494200
3 \$189:1 \$189:4 82.156100
4 \$189:1 \$189:5 34.925800
5 \$189:1 \$189:6 48.068200
6 \$189:1 \$189:7 65.091900
7 \$189:1 \$189:8 46.925300
8 \$189:1 \$189:9 65.705800
*END

*D_NET \$190 0.847910
*CAP
1 \$190:1 0.840597
2 \$190:1 dec_data_strobe 0.003512
3 \$190:1 u_sync_detector\/_01_ 0.003801
*RES
1 \$190:1 \$190:2 27.599400
2 \$190:1 \$190:3 23.748600
3 \$190:1 \$190:4 22.372100
4 \$190:1 \$190:5 12.741300
5 \$190:1 \$190:6 22.897300
6 \$190:1 \$190:7 13.523900
*END

*D_NET \$191 0.980418
*CAP
1 \$191:1 0.966306
2 \$191:1 u_sync_detector\/_09_ 0.000136
3 \$191:1 u_sync_detector\/match[1] 0.013976
*RES
1 \$191:1 \$191:2 17.360700
2 \$191:1 \$191:3 17.105400
3 \$191:1 \$191:4 13.771500
4 \$191:1 \$191:5 16.870200
5 \$191:1 \$191:6 8.058000
6 \$191:1 \$191:7 8.212700
*END

*D_NET \$192 3.421240
*CAP
1 \$192:1 3.421240
*RES
1 \$192:1 \$192:2 25.585900
2 \$192:1 \$192:3 145.473400
3 \$192:1 \$192:4 126.727000
4 \$192:1 \$192:5 31.528000
5 \$192:1 \$192:6 67.830300
6 \$192:1 \$192:7 88.384600
7 \$192:1 \$192:8 64.600500
8 \$192:1 \$192:9 87.164600
*END

*D_NET \$193 0.252346
*CAP
1 \$193:1 0.252346
*RES
1 \$193:1 \$193:2 0.191900
2 \$193:1 \$193:3 0.186600
3 \$193:1 \$193:4 0.183600
4 \$193:1 \$193:5 0.188500
*END

*D_NET \$194 1.140912
*CAP
1 \$194:1 1.140912
*RES
1 \$194:1 \$194:2 23.012200
2 \$194:1 \$194:3 20.560900
3 \$194:1 \$194:4 9.980400
4 \$194:1 \$194:5 15.878100
5 \$194:1 \$194:6 16.463600
6 \$194:1 \$194:7 10.596900
*END

*D_NET \$195 1.181820
*CAP
1 \$195:1 1.174218
2 \$195:1 _053_ 0.003801
3 \$195:1 u_stuffer\/_12_ 0.003801
*RES
1 \$195:1 \$195:2 18.752200
2 \$195:1 \$195:3 19.223900
3 \$195:1 \$195:4 15.035900
4 \$195:1 \$195:5 9.685900
5 \$195:1 \$195:6 13.864300
6 \$195:1 \$195:7 9.231900
*END

*D_NET \$196 0.224263
*CAP
1 \$196:1 0.224263
*RES
1 \$196:1 \$196:2 0.181400
2 \$196:1 \$196:3 0.178100
3 \$196:1 \$196:4 0.175600
4 \$196:1 \$196:5 0.178700
*END

*D_NET \$207 0.312302
*CAP
1 \$207:1 0.312302
*RES
1 \$207:1 \$207:2 0.635800
2 \$207:1 \$207:3 0.035300
3 \$207:1 \$207:4 0.671100
*END

*D_NET \$208 0.312302
*CAP
1 \$208:1 0.312302
*RES
1 \$208:1 \$208:2 0.671100
2 \$208:1 \$208:3 0.671100
3 \$208:1 \$208:4 0.001000
*END

*D_NET \$219 1.522162
*CAP
1 \$219:1 1.501833
2 \$219:1 u_sync_detector\/_09_ 0.003801
3 \$219:1 u_sync_detector\/_10_ 0.002727
4 \$219:1 u_sync_detector\/match[0] 0.007603
5 \$219:1 u_sync_detector\/match[2] 0.006198
*RES
1 \$219:1 \$219:2 16.804100
2 \$219:1 \$219:3 25.018700
3 \$219:1 \$219:4 27.230800
4 \$219:1 \$219:5 20.165300
5 \$219:1 \$219:6 28.507200
6 \$219:1 \$219:7 16.473800
7 \$219:1 \$219:8 25.582100
*END

*D_NET \$222 2.900301
*CAP
1 \$222:1 2.887819
2 \$222:1 clknet_3_1__leaf_clk 0.007603
3 \$222:1 u_eop_detector\/_07_ 0.004879
*RES
1 \$222:1 \$222:2 110.065100
2 \$222:1 \$222:3 20.494200
3 \$222:1 \$222:4 82.156100
4 \$222:1 \$222:5 34.925800
5 \$222:1 \$222:6 48.068200
6 \$222:1 \$222:7 65.091900
7 \$222:1 \$222:8 46.925300
8 \$222:1 \$222:9 65.705800
*END

*D_NET \$223 2.130471
*CAP
1 \$223:1 2.130471
*RES
1 \$223:1 \$223:2 48.046900
2 \$223:1 \$223:3 13.008400
3 \$223:1 \$223:4 63.310200
4 \$223:1 \$223:5 23.606500
5 \$223:1 \$223:6 48.146100
6 \$223:1 \$223:7 47.329500
*END

*D_NET \$224 0.848947
*CAP
1 \$224:1 0.839526
2 \$224:1 u_eop_detector\/_07_ 0.009421
*RES
1 \$224:1 \$224:2 27.599400
2 \$224:1 \$224:3 23.748600
3 \$224:1 \$224:4 22.372100
4 \$224:1 \$224:5 12.741300
5 \$224:1 \$224:6 22.897300
6 \$224:1 \$224:7 13.523900
*END

*D_NET \$225 0.832679
*CAP
1 \$225:1 0.832679
*RES
1 \$225:1 \$225:2 16.527400
2 \$225:1 \$225:3 15.499600
3 \$225:1 \$225:4 10.523900
4 \$225:1 \$225:5 17.319100
5 \$225:1 \$225:6 10.298700
6 \$225:1 \$225:7 13.857700
*END

*D_NET \$226 0.975414
*CAP
1 \$226:1 0.971477
2 \$226:1 bus_reset 0.003801
3 \$226:1 eop_pulse 0.000136
*RES
1 \$226:1 \$226:2 17.105400
2 \$226:1 \$226:3 17.360700
3 \$226:1 \$226:4 13.771500
4 \$226:1 \$226:5 16.870200
5 \$226:1 \$226:6 8.058000
6 \$226:1 \$226:7 8.212700
*END

*D_NET \$227 1.348736
*CAP
1 \$227:1 1.337810
2 \$227:1 bus_reset 0.001505
3 \$227:1 eop_pulse 0.009421
*RES
1 \$227:1 \$227:2 19.166400
2 \$227:1 \$227:3 31.720400
3 \$227:1 \$227:4 37.678600
4 \$227:1 \$227:5 18.380300
5 \$227:1 \$227:6 30.960700
6 \$227:1 \$227:7 37.481600
*END

*D_NET \$229 2.901639
*CAP
1 \$229:1 2.886434
2 \$229:1 clknet_3_4__leaf_clk 0.007603
3 \$229:1 u_eop_detector\/_06_ 0.003801
4 \$229:1 u_eop_detector\/_09_ 0.003801
*RES
1 \$229:1 \$229:2 110.065100
2 \$229:1 \$229:3 20.494200
3 \$229:1 \$229:4 82.156100
4 \$229:1 \$229:5 34.925800
5 \$229:1 \$229:6 48.068200
6 \$229:1 \$229:7 65.091900
7 \$229:1 \$229:8 46.925300
8 \$229:1 \$229:9 65.705800
*END

*D_NET \$230 2.134210
*CAP
1 \$230:1 2.126607
2 \$230:1 u_eop_detector\/_09_ 0.007603
*RES
1 \$230:1 \$230:2 48.046900
2 \$230:1 \$230:3 13.008400
3 \$230:1 \$230:4 63.310200
4 \$230:1 \$230:5 23.606500
5 \$230:1 \$230:6 48.146100
6 \$230:1 \$230:7 47.329500
*END

*D_NET \$231 0.845043
*CAP
1 \$231:1 0.843560
2 \$231:1 u_eop_detector\/_06_ 0.001483
*RES
1 \$231:1 \$231:2 27.599400
2 \$231:1 \$231:3 23.748600
3 \$231:1 \$231:4 22.372100
4 \$231:1 \$231:5 12.741300
5 \$231:1 \$231:6 22.897300
6 \$231:1 \$231:7 13.523900
*END

*D_NET \$232 0.832679
*CAP
1 \$232:1 0.832679
*RES
1 \$232:1 \$232:2 16.527400
2 \$232:1 \$232:3 15.499600
3 \$232:1 \$232:4 10.523900
4 \$232:1 \$232:5 17.319100
5 \$232:1 \$232:6 10.298700
6 \$232:1 \$232:7 13.857700
*END

*D_NET \$233 0.975347
*CAP
1 \$233:1 0.971546
2 \$233:1 clknet_0_clk 0.003801
*RES
1 \$233:1 \$233:2 17.105400
2 \$233:1 \$233:3 17.360700
3 \$233:1 \$233:4 13.771500
4 \$233:1 \$233:5 16.870200
5 \$233:1 \$233:6 8.058000
6 \$233:1 \$233:7 8.212700
*END

*D_NET \$234 1.344103
*CAP
1 \$234:1 1.342598
2 \$234:1 clknet_0_clk 0.001505
*RES
1 \$234:1 \$234:2 19.166400
2 \$234:1 \$234:3 31.720400
3 \$234:1 \$234:4 37.678600
4 \$234:1 \$234:5 18.380300
5 \$234:1 \$234:6 30.960700
6 \$234:1 \$234:7 37.481600
*END

*D_NET \$236 0.787328
*CAP
1 \$236:1 0.783527
2 \$236:1 u_stuffer\/_01_ 0.003801
*RES
1 \$236:1 \$236:2 0.894000
2 \$236:1 \$236:3 0.916700
3 \$236:1 \$236:4 0.188300
4 \$236:1 \$236:5 0.535500
5 \$236:1 \$236:6 0.546800
6 \$236:1 \$236:7 0.199700
*END

*D_NET \$24 2.900300
*CAP
1 \$24:1 2.887819
2 \$24:1 u_eop_detector\/_05_ 0.003801
3 \$24:1 u_eop_detector\/_24_ 0.004879
4 \$24:1 u_eop_detector\/_25_ 0.003801
*RES
1 \$24:1 \$24:2 65.091900
2 \$24:1 \$24:3 48.068200
3 \$24:1 \$24:4 34.925800
4 \$24:1 \$24:5 82.156100
5 \$24:1 \$24:6 110.065100
6 \$24:1 \$24:7 20.494200
7 \$24:1 \$24:8 46.925300
8 \$24:1 \$24:9 65.705800
*END

*D_NET \$26 2.146462
*CAP
1 \$26:1 2.113944
2 \$26:1 u_eop_detector\/_24_ 0.003801
3 \$26:1 u_eop_detector\/_25_ 0.028717
*RES
1 \$26:1 \$26:2 48.146100
2 \$26:1 \$26:3 23.606500
3 \$26:1 \$26:4 63.310200
4 \$26:1 \$26:5 48.046900
5 \$26:1 \$26:6 13.008400
6 \$26:1 \$26:7 47.329500
*END

*D_NET \$262 1.434030
*CAP
1 \$262:1 1.415025
2 \$262:1 dec_data_strobe 0.003801
3 \$262:1 u_sync_detector\/_09_ 0.003801
4 \$262:1 u_sync_detector\/match[0] 0.003801
5 \$262:1 u_sync_detector\/match[1] 0.003801
6 \$262:1 u_sync_detector\/match[2] 0.003801
*RES
1 \$262:1 \$262:2 1.707000
2 \$262:1 \$262:3 1.354700
3 \$262:1 \$262:4 0.598400
4 \$262:1 \$262:5 0.888500
5 \$262:1 \$262:6 0.774500
6 \$262:1 \$262:7 1.064600
*END

*D_NET \$265 2.897900
*CAP
1 \$265:1 2.890298
2 \$265:1 clknet_3_1__leaf_clk 0.003801
3 \$265:1 u_sync_detector\/_09_ 0.003801
*RES
1 \$265:1 \$265:2 110.065100
2 \$265:1 \$265:3 20.494200
3 \$265:1 \$265:4 82.156100
4 \$265:1 \$265:5 34.925800
5 \$265:1 \$265:6 48.068200
6 \$265:1 \$265:7 65.091900
7 \$265:1 \$265:8 46.925300
8 \$265:1 \$265:9 65.705800
*END

*D_NET \$266 2.134569
*CAP
1 \$266:1 2.126236
2 \$266:1 u_sync_detector\/_00_ 0.003801
3 \$266:1 u_sync_detector\/_09_ 0.004532
*RES
1 \$266:1 \$266:2 23.606500
2 \$266:1 \$266:3 48.046900
3 \$266:1 \$266:4 13.008400
4 \$266:1 \$266:5 63.310200
5 \$266:1 \$266:6 48.146100
6 \$266:1 \$266:7 47.329500
*END

*D_NET \$267 0.847297
*CAP
1 \$267:1 0.841231
2 \$267:1 u_sync_detector\/_00_ 0.000447
3 \$267:1 u_sync_detector\/_09_ 0.005619
*RES
1 \$267:1 \$267:2 27.599400
2 \$267:1 \$267:3 23.748600
3 \$267:1 \$267:4 22.372100
4 \$267:1 \$267:5 12.741300
5 \$267:1 \$267:6 22.897300
6 \$267:1 \$267:7 13.523900
*END

*D_NET \$268 0.832679
*CAP
1 \$268:1 0.832679
*RES
1 \$268:1 \$268:2 16.527400
2 \$268:1 \$268:3 15.499600
3 \$268:1 \$268:4 10.523900
4 \$268:1 \$268:5 17.319100
5 \$268:1 \$268:6 10.298700
6 \$268:1 \$268:7 13.857700
*END

*D_NET \$269 0.973545
*CAP
1 \$269:1 0.973409
2 \$269:1 u_sync_detector\/match[3] 0.000136
*RES
1 \$269:1 \$269:2 17.360700
2 \$269:1 \$269:3 17.105400
3 \$269:1 \$269:4 13.771500
4 \$269:1 \$269:5 16.870200
5 \$269:1 \$269:6 8.058000
6 \$269:1 \$269:7 8.212700
*END

*D_NET \$27 0.850569
*CAP
1 \$27:1 0.837848
2 \$27:1 u_eop_detector\/_05_ 0.001483
3 \$27:1 u_eop_detector\/_09_ 0.005619
4 \$27:1 u_eop_detector\/_24_ 0.005619
*RES
1 \$27:1 \$27:2 23.748600
2 \$27:1 \$27:3 27.599400
3 \$27:1 \$27:4 12.741300
4 \$27:1 \$27:5 22.372100
5 \$27:1 \$27:6 13.523900
6 \$27:1 \$27:7 22.897300
*END

*D_NET \$270 1.346594
*CAP
1 \$270:1 1.340024
2 \$270:1 u_sync_detector\/match[3] 0.006570
*RES
1 \$270:1 \$270:2 18.380300
2 \$270:1 \$270:3 30.960700
3 \$270:1 \$270:4 37.678600
4 \$270:1 \$270:5 19.166400
5 \$270:1 \$270:6 31.720400
6 \$270:1 \$270:7 37.481600
*END

*D_NET \$271 2.512711
*CAP
1 \$271:1 2.508910
2 \$271:1 clknet_3_1__leaf_clk 0.003801
*RES
1 \$271:1 \$271:2 25.357500
2 \$271:1 \$271:3 17.460200
3 \$271:1 \$271:4 17.679900
4 \$271:1 \$271:5 36.428000
5 \$271:1 \$271:6 36.954100
6 \$271:1 \$271:7 25.810100
7 \$271:1 \$271:8 17.460200
8 \$271:1 \$271:9 17.679900
9 \$271:1 \$271:10 36.428000
10 \$271:1 \$271:11 25.357500
11 \$271:1 \$271:12 25.810100
12 \$271:1 \$271:13 36.954100
*END

*D_NET \$278 3.426441
*CAP
1 \$278:1 3.415864
2 \$278:1 clknet_3_5__leaf_clk 0.006776
3 \$278:1 u_stuffer\/_11_ 0.003801
*RES
1 \$278:1 \$278:2 25.585900
2 \$278:1 \$278:3 145.473400
3 \$278:1 \$278:4 126.727000
4 \$278:1 \$278:5 31.528000
5 \$278:1 \$278:6 67.830300
6 \$278:1 \$278:7 88.384600
7 \$278:1 \$278:8 64.600500
8 \$278:1 \$278:9 87.164600
*END

*D_NET \$279 0.264181
*CAP
1 \$279:1 0.240114
2 \$279:1 tx_body_active 0.024067
*RES
1 \$279:1 \$279:2 0.188500
2 \$279:1 \$279:3 0.186600
3 \$279:1 \$279:4 0.191900
4 \$279:1 \$279:5 0.183600
*END

*D_NET \$28 0.835442
*CAP
1 \$28:1 0.829823
2 \$28:1 u_eop_detector\/_09_ 0.005619
*RES
1 \$28:1 \$28:2 15.499600
2 \$28:1 \$28:3 16.527400
3 \$28:1 \$28:4 17.319100
4 \$28:1 \$28:5 10.523900
5 \$28:1 \$28:6 13.857700
6 \$28:1 \$28:7 10.298700
*END

*D_NET \$280 1.140912
*CAP
1 \$280:1 1.140912
*RES
1 \$280:1 \$280:2 23.012200
2 \$280:1 \$280:3 20.560900
3 \$280:1 \$280:4 15.878100
4 \$280:1 \$280:5 9.980400
5 \$280:1 \$280:6 16.463600
6 \$280:1 \$280:7 10.596900
*END

*D_NET \$281 2.522854
*CAP
1 \$281:1 2.482644
2 \$281:1 tx_body_active 0.007741
3 \$281:1 u_stuffer\/_00_ 0.009255
4 \$281:1 u_stuffer\/_10_ 0.012722
5 \$281:1 u_stuffer\/run[0] 0.010492
*RES
1 \$281:1 \$281:2 13.078200
2 \$281:1 \$281:3 48.907600
3 \$281:1 \$281:4 18.638700
4 \$281:1 \$281:5 62.186300
5 \$281:1 \$281:6 48.835100
6 \$281:1 \$281:7 47.117200
*END

*D_NET \$282 0.997821
*CAP
1 \$282:1 0.997821
*RES
1 \$282:1 \$282:2 17.112100
2 \$282:1 \$282:3 17.002900
3 \$282:1 \$282:4 10.221100
4 \$282:1 \$282:5 8.966800
5 \$282:1 \$282:6 13.642900
6 \$282:1 \$282:7 15.110100
*END

*D_NET \$283 1.178082
*CAP
1 \$283:1 1.178082
*RES
1 \$283:1 \$283:2 19.223900
2 \$283:1 \$283:3 18.752200
3 \$283:1 \$283:4 15.035900
4 \$283:1 \$283:5 9.685900
5 \$283:1 \$283:6 13.864300
6 \$283:1 \$283:7 9.231900
*END

*D_NET \$284 0.224263
*CAP
1 \$284:1 0.224263
*RES
1 \$284:1 \$284:2 0.178700
2 \$284:1 \$284:3 0.181400
3 \$284:1 \$284:4 0.178100
4 \$284:1 \$284:5 0.175600
*END

*D_NET \$285 1.550043
*CAP
1 \$285:1 1.550043
*RES
1 \$285:1 \$285:2 33.281900
2 \$285:1 \$285:3 19.438700
3 \$285:1 \$285:4 35.783200
4 \$285:1 \$285:5 37.455900
5 \$285:1 \$285:6 33.998000
6 \$285:1 \$285:7 17.373600
7 \$285:1 \$285:8 15.586800
*END

*D_NET \$29 0.973478
*CAP
1 \$29:1 0.973478
*RES
1 \$29:1 \$29:2 17.360700
2 \$29:1 \$29:3 17.105400
3 \$29:1 \$29:4 8.058000
4 \$29:1 \$29:5 16.870200
5 \$29:1 \$29:6 8.212700
6 \$29:1 \$29:7 13.771500
*END

*D_NET \$30 1.346004
*CAP
1 \$30:1 1.340633
2 \$30:1 u_eop_detector\/_09_ 0.001570
3 \$30:1 u_eop_detector\/se0_count[3] 0.003801
*RES
1 \$30:1 \$30:2 37.481600
2 \$30:1 \$30:3 30.960700
3 \$30:1 \$30:4 18.380300
4 \$30:1 \$30:5 31.720400
5 \$30:1 \$30:6 19.166400
6 \$30:1 \$30:7 37.678600
*END

*D_NET \$301 0.313968
*CAP
1 \$301:1 0.310580
2 \$301:1 u_stuffer\/run[0] 0.003388
*RES
1 \$301:1 \$301:2 0.671100
2 \$301:1 \$301:3 0.671100
3 \$301:1 \$301:4 0.001000
*END

*D_NET \$302 0.793998
*CAP
1 \$302:1 0.776633
2 \$302:1 tx_body_active 0.004144
3 \$302:1 u_stuffer\/_02_ 0.004710
4 \$302:1 u_stuffer\/_09_ 0.003801
5 \$302:1 u_stuffer\/_13_ 0.004710
*RES
1 \$302:1 \$302:2 0.894000
2 \$302:1 \$302:3 0.916700
3 \$302:1 \$302:4 0.199700
4 \$302:1 \$302:5 0.535500
5 \$302:1 \$302:6 0.188300
6 \$302:1 \$302:7 0.546800
*END

*D_NET \$309 3.423800
*CAP
1 \$309:1 3.418594
2 \$309:1 clknet_3_4__leaf_clk 0.005206
*RES
1 \$309:1 \$309:2 145.473400
2 \$309:1 \$309:3 25.585900
3 \$309:1 \$309:4 31.528000
4 \$309:1 \$309:5 126.727000
5 \$309:1 \$309:6 67.830300
6 \$309:1 \$309:7 88.384600
7 \$309:1 \$309:8 64.600500
8 \$309:1 \$309:9 87.164600
*END

*D_NET \$31 2.894162
*CAP
1 \$31:1 2.894162
*RES
1 \$31:1 \$31:2 110.065100
2 \$31:1 \$31:3 20.494200
3 \$31:1 \$31:4 82.156100
4 \$31:1 \$31:5 34.925800
5 \$31:1 \$31:6 48.068200
6 \$31:1 \$31:7 65.091900
7 \$31:1 \$31:8 46.925300
8 \$31:1 \$31:9 65.705800
*END

*D_NET \$312 2.896031
*CAP
1 \$312:1 2.892230
2 \$312:1 u_sync_detector\/_02_ 0.003801
*RES
1 \$312:1 \$312:2 110.065100
2 \$312:1 \$312:3 20.494200
3 \$312:1 \$312:4 82.156100
4 \$312:1 \$312:5 34.925800
5 \$312:1 \$312:6 48.068200
6 \$312:1 \$312:7 65.091900
7 \$312:1 \$312:8 46.925300
8 \$312:1 \$312:9 65.705800
*END

*D_NET \$313 0.832679
*CAP
1 \$313:1 0.832679
*RES
1 \$313:1 \$313:2 16.527400
2 \$313:1 \$313:3 15.499600
3 \$313:1 \$313:4 10.523900
4 \$313:1 \$313:5 17.319100
5 \$313:1 \$313:6 10.298700
6 \$313:1 \$313:7 13.857700
*END

*D_NET \$314 0.975347
*CAP
1 \$314:1 0.971546
2 \$314:1 clknet_3_0__leaf_clk 0.003801
*RES
1 \$314:1 \$314:2 17.105400
2 \$314:1 \$314:3 17.360700
3 \$314:1 \$314:4 13.771500
4 \$314:1 \$314:5 16.870200
5 \$314:1 \$314:6 8.058000
6 \$314:1 \$314:7 8.212700
*END

*D_NET \$315 1.344103
*CAP
1 \$315:1 1.342598
2 \$315:1 clknet_3_0__leaf_clk 0.001505
*RES
1 \$315:1 \$315:2 19.166400
2 \$315:1 \$315:3 31.720400
3 \$315:1 \$315:4 37.678600
4 \$315:1 \$315:5 18.380300
5 \$315:1 \$315:6 30.960700
6 \$315:1 \$315:7 37.481600
*END

*D_NET \$316 0.318566
*CAP
1 \$316:1 0.305828
2 \$316:1 u_sync_detector\/_06_ 0.006883
3 \$316:1 u_sync_detector\/match[1] 0.005855
*RES
1 \$316:1 \$316:2 0.650500
2 \$316:1 \$316:3 0.020600
3 \$316:1 \$316:4 0.671100
*END

*D_NET \$32 2.132700
*CAP
1 \$32:1 2.128168
2 \$32:1 u_eop_detector\/_02_ 0.004532
*RES
1 \$32:1 \$32:2 48.046900
2 \$32:1 \$32:3 13.008400
3 \$32:1 \$32:4 63.310200
4 \$32:1 \$32:5 23.606500
5 \$32:1 \$32:6 48.146100
6 \$32:1 \$32:7 47.329500
*END

*D_NET \$320 1.513506
*CAP
1 \$320:1 1.510779
2 \$320:1 _053_ 0.002727
*RES
1 \$320:1 \$320:2 16.804100
2 \$320:1 \$320:3 25.018700
3 \$320:1 \$320:4 27.230800
4 \$320:1 \$320:5 20.165300
5 \$320:1 \$320:6 28.507200
6 \$320:1 \$320:7 25.582100
7 \$320:1 \$320:8 16.473800
*END

*D_NET \$322 2.504949
*CAP
1 \$322:1 2.501148
2 \$322:1 clknet_0_clk 0.003801
*RES
1 \$322:1 \$322:2 13.078200
2 \$322:1 \$322:3 48.907600
3 \$322:1 \$322:4 18.638700
4 \$322:1 \$322:5 62.186300
5 \$322:1 \$322:6 48.835100
6 \$322:1 \$322:7 47.117200
*END

*D_NET \$323 0.269979
*CAP
1 \$323:1 0.234122
2 \$323:1 clknet_0_clk 0.035857
*RES
1 \$323:1 \$323:2 0.188500
2 \$323:1 \$323:3 0.186600
3 \$323:1 \$323:4 0.191900
4 \$323:1 \$323:5 0.183600
*END

*D_NET \$324 1.140912
*CAP
1 \$324:1 1.140912
*RES
1 \$324:1 \$324:2 23.012200
2 \$324:1 \$324:3 20.560900
3 \$324:1 \$324:4 15.878100
4 \$324:1 \$324:5 9.980400
5 \$324:1 \$324:6 16.463600
6 \$324:1 \$324:7 10.596900
*END

*D_NET \$325 0.312302
*CAP
1 \$325:1 0.312302
*RES
1 \$325:1 \$325:2 0.671100
2 \$325:1 \$325:3 0.671100
3 \$325:1 \$325:4 0.001000
*END

*D_NET \$326 0.997821
*CAP
1 \$326:1 0.997821
*RES
1 \$326:1 \$326:2 17.112100
2 \$326:1 \$326:3 17.002900
3 \$326:1 \$326:4 10.221100
4 \$326:1 \$326:5 8.966800
5 \$326:1 \$326:6 13.642900
6 \$326:1 \$326:7 15.110100
*END

*D_NET \$327 1.181820
*CAP
1 \$327:1 1.174218
2 \$327:1 u_stuffer\/_02_ 0.003801
3 \$327:1 u_stuffer\/_13_ 0.003801
*RES
1 \$327:1 \$327:2 18.752200
2 \$327:1 \$327:3 19.223900
3 \$327:1 \$327:4 15.035900
4 \$327:1 \$327:5 9.685900
5 \$327:1 \$327:6 13.864300
6 \$327:1 \$327:7 9.231900
*END

*D_NET \$328 0.235946
*CAP
1 \$328:1 0.212188
2 \$328:1 u_stuffer\/_13_ 0.023758
*RES
1 \$328:1 \$328:2 0.181400
2 \$328:1 \$328:3 0.178100
3 \$328:1 \$328:4 0.175600
4 \$328:1 \$328:5 0.178700
*END

*D_NET \$329 1.558166
*CAP
1 \$329:1 1.541647
2 \$329:1 tx_body_active 0.015858
3 \$329:1 u_stuffer\/_02_ 0.000661
*RES
1 \$329:1 \$329:2 33.281900
2 \$329:1 \$329:3 19.438700
3 \$329:1 \$329:4 35.783200
4 \$329:1 \$329:5 37.455900
5 \$329:1 \$329:6 33.998000
6 \$329:1 \$329:7 15.586800
7 \$329:1 \$329:8 17.373600
*END

*D_NET \$331 0.344613
*CAP
1 \$331:1 0.331227
2 \$331:1 clknet_3_5__leaf_clk 0.003801
3 \$331:1 u_stuffer\/_00_ 0.001983
4 \$331:1 u_stuffer\/_11_ 0.003801
5 \$331:1 u_stuffer\/run[0] 0.003801
*RES
1 \$331:1 \$331:2 0.718300
2 \$331:1 \$331:3 0.011500
3 \$331:1 \$331:4 0.729800
*END

*D_NET \$332 2.130471
*CAP
1 \$332:1 2.130471
*RES
1 \$332:1 \$332:2 48.046900
2 \$332:1 \$332:3 13.008400
3 \$332:1 \$332:4 63.310200
4 \$332:1 \$332:5 23.606500
5 \$332:1 \$332:6 48.146100
6 \$332:1 \$332:7 47.329500
*END

*D_NET \$333 0.845043
*CAP
1 \$333:1 0.843560
2 \$333:1 u_sync_detector\/_02_ 0.001483
*RES
1 \$333:1 \$333:2 27.599400
2 \$333:1 \$333:3 23.748600
3 \$333:1 \$333:4 22.372100
4 \$333:1 \$333:5 12.741300
5 \$333:1 \$333:6 22.897300
6 \$333:1 \$333:7 13.523900
*END

*D_NET \$336 1.014307
*CAP
1 \$336:1 0.995142
2 \$336:1 _053_ 0.011563
3 \$336:1 u_stuffer\/_12_ 0.003801
4 \$336:1 u_stuffer\/run[1] 0.003801
*RES
1 \$336:1 \$336:2 21.630700
2 \$336:1 \$336:3 17.531100
3 \$336:1 \$336:4 16.737100
4 \$336:1 \$336:5 15.752800
5 \$336:1 \$336:6 9.756800
*END

*D_NET \$34 0.846183
*CAP
1 \$34:1 0.842382
2 \$34:1 u_eop_detector\/_02_ 0.003801
*RES
1 \$34:1 \$34:2 27.599400
2 \$34:1 \$34:3 23.748600
3 \$34:1 \$34:4 22.372100
4 \$34:1 \$34:5 12.741300
5 \$34:1 \$34:6 22.897300
6 \$34:1 \$34:7 13.523900
*END

*D_NET \$344 1.435165
*CAP
1 \$344:1 1.413852
2 \$344:1 _053_ 0.003801
3 \$344:1 clknet_0_clk 0.006109
4 \$344:1 sync_next 0.003801
5 \$344:1 u_sync_detector\/_07_ 0.003801
6 \$344:1 u_sync_detector\/match[3] 0.003801
*RES
1 \$344:1 \$344:2 1.707000
2 \$344:1 \$344:3 1.354700
3 \$344:1 \$344:4 0.598400
4 \$344:1 \$344:5 0.888500
5 \$344:1 \$344:6 0.774500
6 \$344:1 \$344:7 1.064600
*END

*D_NET \$345 0.359625
*CAP
1 \$345:1 0.355824
2 \$345:1 _139_ 0.003801
*RES
1 \$345:1 \$345:2 0.774800
2 \$345:1 \$345:3 0.001000
3 \$345:1 \$345:4 0.774800
*END

*D_NET \$35 0.832679
*CAP
1 \$35:1 0.832679
*RES
1 \$35:1 \$35:2 16.527400
2 \$35:1 \$35:3 15.499600
3 \$35:1 \$35:4 10.523900
4 \$35:1 \$35:5 17.319100
5 \$35:1 \$35:6 10.298700
6 \$35:1 \$35:7 13.857700
*END

*D_NET \$36 0.973478
*CAP
1 \$36:1 0.973478
*RES
1 \$36:1 \$36:2 17.105400
2 \$36:1 \$36:3 17.360700
3 \$36:1 \$36:4 13.771500
4 \$36:1 \$36:5 16.870200
5 \$36:1 \$36:6 8.058000
6 \$36:1 \$36:7 8.212700
*END

*D_NET \$368 1.081197
*CAP
1 \$368:1 1.064988
2 \$368:1 dec_data_strobe 0.007603
3 \$368:1 u_sync_detector\/_03_ 0.004642
4 \$368:1 u_sync_detector\/match[0] 0.003964
*RES
1 \$368:1 \$368:2 21.267000
2 \$368:1 \$368:3 13.242300
3 \$368:1 \$368:4 18.132100
4 \$368:1 \$368:5 16.491100
5 \$368:1 \$368:6 12.683900
*END

*D_NET \$37 1.345699
*CAP
1 \$37:1 1.340948
2 \$37:1 u_eop_detector\/_10_ 0.003801
3 \$37:1 u_eop_detector\/_20_ 0.000950
*RES
1 \$37:1 \$37:2 19.166400
2 \$37:1 \$37:3 31.720400
3 \$37:1 \$37:4 37.678600
4 \$37:1 \$37:5 18.380300
5 \$37:1 \$37:6 30.960700
6 \$37:1 \$37:7 37.481600
*END

*D_NET \$371 2.900510
*CAP
1 \$371:1 2.887601
2 \$371:1 clknet_3_4__leaf_clk 0.003801
3 \$371:1 rx_receiving 0.009108
*RES
1 \$371:1 \$371:2 110.065100
2 \$371:1 \$371:3 20.494200
3 \$371:1 \$371:4 82.156100
4 \$371:1 \$371:5 34.925800
5 \$371:1 \$371:6 48.068200
6 \$371:1 \$371:7 65.091900
7 \$371:1 \$371:8 46.925300
8 \$371:1 \$371:9 65.705800
*END

*D_NET \$372 2.145933
*CAP
1 \$372:1 2.114491
2 \$372:1 clknet_3_4__leaf_clk 0.009731
3 \$372:1 u_eop_detector\/_08_ 0.006528
4 \$372:1 u_sync_detector\/_04_ 0.015183
*RES
1 \$372:1 \$372:2 23.606500
2 \$372:1 \$372:3 48.046900
3 \$372:1 \$372:4 13.008400
4 \$372:1 \$372:5 63.310200
5 \$372:1 \$372:6 48.146100
6 \$372:1 \$372:7 47.329500
*END

*D_NET \$373 0.844314
*CAP
1 \$373:1 0.844314
*RES
1 \$373:1 \$373:2 27.599400
2 \$373:1 \$373:3 23.748600
3 \$373:1 \$373:4 22.372100
4 \$373:1 \$373:5 12.741300
5 \$373:1 \$373:6 22.897300
6 \$373:1 \$373:7 13.523900
*END

*D_NET \$374 0.832679
*CAP
1 \$374:1 0.832679
*RES
1 \$374:1 \$374:2 16.527400
2 \$374:1 \$374:3 15.499600
3 \$374:1 \$374:4 10.523900
4 \$374:1 \$374:5 17.319100
5 \$374:1 \$374:6 10.298700
6 \$374:1 \$374:7 13.857700
*END

*D_NET \$375 0.977521
*CAP
1 \$375:1 0.969299
2 \$375:1 u_eop_detector\/_08_ 0.008222
*RES
1 \$375:1 \$375:2 17.360700
2 \$375:1 \$375:3 17.105400
3 \$375:1 \$375:4 13.771500
4 \$375:1 \$375:5 16.870200
5 \$375:1 \$375:6 8.058000
6 \$375:1 \$375:7 8.212700
*END

*D_NET \$376 1.343830
*CAP
1 \$376:1 1.342880
2 \$376:1 _053_ 0.000950
*RES
1 \$376:1 \$376:2 18.380300
2 \$376:1 \$376:3 30.960700
3 \$376:1 \$376:4 37.678600
4 \$376:1 \$376:5 19.166400
5 \$376:1 \$376:6 31.720400
6 \$376:1 \$376:7 37.481600
*END

*D_NET \$378 1.120050
*CAP
1 \$378:1 1.120050
*RES
1 \$378:1 \$378:2 20.605000
2 \$378:1 \$378:3 15.008600
3 \$378:1 \$378:4 18.928400
4 \$378:1 \$378:5 15.930500
5 \$378:1 \$378:6 11.580900
*END

*D_NET \$380 0.345868
*CAP
1 \$380:1 0.340394
2 \$380:1 tx_body_active 0.003801
3 \$380:1 u_stuffer\/run[2] 0.001673
*RES
1 \$380:1 \$380:2 0.741500
2 \$380:1 \$380:3 0.001000
3 \$380:1 \$380:4 0.741500
*END

*D_NET \$381 1.558741
*CAP
1 \$381:1 1.546139
2 \$381:1 tx_body_active 0.008801
3 \$381:1 u_stuffer\/run[2] 0.003801
*RES
1 \$381:1 \$381:2 16.699600
2 \$381:1 \$381:3 24.206200
3 \$381:1 \$381:4 24.607900
4 \$381:1 \$381:5 16.983400
5 \$381:1 \$381:6 20.146800
6 \$381:1 \$381:7 29.217800
7 \$381:1 \$381:8 20.488900
8 \$381:1 \$381:9 13.968000
*END

*D_NET \$382 1.603547
*CAP
1 \$382:1 1.569337
2 \$382:1 _012_ 0.003801
3 \$382:1 clknet_3_5__leaf_clk 0.003801
4 \$382:1 stuff_consume 0.003801
5 \$382:1 tx_body_active 0.003801
6 \$382:1 u_stuffer\/_00_ 0.003801
7 \$382:1 u_stuffer\/_04_ 0.007603
8 \$382:1 u_stuffer\/_12_ 0.003801
9 \$382:1 u_stuffer\/run[1] 0.003801
*RES
1 \$382:1 \$382:2 1.725700
2 \$382:1 \$382:3 1.725700
3 \$382:1 \$382:4 1.053600
4 \$382:1 \$382:5 0.799300
5 \$382:1 \$382:6 0.799300
6 \$382:1 \$382:7 1.053600
*END

*D_NET \$386 1.078178
*CAP
1 \$386:1 1.060595
2 \$386:1 _120_ 0.009981
3 \$386:1 _121_ 0.003801
4 \$386:1 sync_idx[1] 0.003801
*RES
1 \$386:1 \$386:2 18.099400
2 \$386:1 \$386:3 14.315200
3 \$386:1 \$386:4 21.244800
4 \$386:1 \$386:5 16.029100
5 \$386:1 \$386:6 12.128100
*END

*D_NET \$39 2.903476
*CAP
1 \$39:1 2.884535
2 \$39:1 u_eop_detector\/_17_ 0.003801
3 \$39:1 u_eop_detector\/_21_ 0.011339
4 \$39:1 u_eop_detector\/se0_count[0] 0.003801
*RES
1 \$39:1 \$39:2 110.065100
2 \$39:1 \$39:3 20.494200
3 \$39:1 \$39:4 82.156100
4 \$39:1 \$39:5 34.925800
5 \$39:1 \$39:6 48.068200
6 \$39:1 \$39:7 65.091900
7 \$39:1 \$39:8 46.925300
8 \$39:1 \$39:9 65.705800
*END

*D_NET \$40 2.136439
*CAP
1 \$40:1 2.124304
2 \$40:1 u_eop_detector\/_03_ 0.004532
3 \$40:1 u_eop_detector\/se0_count[0] 0.007603
*RES
1 \$40:1 \$40:2 48.046900
2 \$40:1 \$40:3 13.008400
3 \$40:1 \$40:4 63.310200
4 \$40:1 \$40:5 23.606500
5 \$40:1 \$40:6 48.146100
6 \$40:1 \$40:7 47.329500
*END

*D_NET \$402 2.111776
*CAP
1 \$402:1 2.096571
2 \$402:1 _053_ 0.003801
3 \$402:1 dec_data_strobe 0.003801
4 \$402:1 u_sync_detector\/_07_ 0.007603
*RES
1 \$402:1 \$402:2 2.323100
2 \$402:1 \$402:3 2.264200
3 \$402:1 \$402:4 1.058400
4 \$402:1 \$402:5 1.407100
5 \$402:1 \$402:6 1.087900
6 \$402:1 \$402:7 1.377700
*END

*D_NET \$41 0.846183
*CAP
1 \$41:1 0.842382
2 \$41:1 u_eop_detector\/_03_ 0.003801
*RES
1 \$41:1 \$41:2 27.599400
2 \$41:1 \$41:3 23.748600
3 \$41:1 \$41:4 22.372100
4 \$41:1 \$41:5 12.741300
5 \$41:1 \$41:6 22.897300
6 \$41:1 \$41:7 13.523900
*END

*D_NET \$419 1.714278
*CAP
1 \$419:1 1.692456
2 \$419:1 clknet_0_clk 0.018021
3 \$419:1 u_encoder\/_2_ 0.003801
*RES
1 \$419:1 \$419:2 16.448400
2 \$419:1 \$419:3 23.905800
3 \$419:1 \$419:4 16.161900
4 \$419:1 \$419:5 23.905800
5 \$419:1 \$419:6 25.339300
6 \$419:1 \$419:7 17.875500
7 \$419:1 \$419:8 15.064400
8 \$419:1 \$419:9 22.317000
*END

*D_NET \$42 0.832679
*CAP
1 \$42:1 0.832679
*RES
1 \$42:1 \$42:2 16.527400
2 \$42:1 \$42:3 15.499600
3 \$42:1 \$42:4 10.523900
4 \$42:1 \$42:5 17.319100
5 \$42:1 \$42:6 10.298700
6 \$42:1 \$42:7 13.857700
*END

*D_NET \$420 1.125909
*CAP
1 \$420:1 1.112853
2 \$420:1 _011_ 0.005454
3 \$420:1 clknet_0_clk 0.003801
4 \$420:1 nrzi_level 0.003801
*RES
1 \$420:1 \$420:2 35.373400
2 \$420:1 \$420:3 28.301000
3 \$420:1 \$420:4 31.303900
4 \$420:1 \$420:5 31.869700
*END

*D_NET \$423 2.905514
*CAP
1 \$423:1 2.882431
2 \$423:1 clknet_3_0__leaf_clk 0.014403
3 \$423:1 dec_data_strobe 0.004879
4 \$423:1 u_sync_detector\/_03_ 0.003801
*RES
1 \$423:1 \$423:2 110.065100
2 \$423:1 \$423:3 20.494200
3 \$423:1 \$423:4 82.156100
4 \$423:1 \$423:5 34.925800
5 \$423:1 \$423:6 48.068200
6 \$423:1 \$423:7 65.091900
7 \$423:1 \$423:8 46.925300
8 \$423:1 \$423:9 65.705800
*END

*D_NET \$424 2.132340
*CAP
1 \$424:1 2.128539
2 \$424:1 dec_data_strobe 0.003801
*RES
1 \$424:1 \$424:2 48.046900
2 \$424:1 \$424:3 13.008400
3 \$424:1 \$424:4 63.310200
4 \$424:1 \$424:5 23.606500
5 \$424:1 \$424:6 48.146100
6 \$424:1 \$424:7 47.329500
*END

*D_NET \$425 0.847806
*CAP
1 \$425:1 0.840704
2 \$425:1 dec_data_strobe 0.005619
3 \$425:1 u_sync_detector\/_03_ 0.001483
*RES
1 \$425:1 \$425:2 27.599400
2 \$425:1 \$425:3 23.748600
3 \$425:1 \$425:4 22.372100
4 \$425:1 \$425:5 12.741300
5 \$425:1 \$425:6 22.897300
6 \$425:1 \$425:7 13.523900
*END

*D_NET \$426 0.832679
*CAP
1 \$426:1 0.832679
*RES
1 \$426:1 \$426:2 16.527400
2 \$426:1 \$426:3 15.499600
3 \$426:1 \$426:4 10.523900
4 \$426:1 \$426:5 17.319100
5 \$426:1 \$426:6 10.298700
6 \$426:1 \$426:7 13.857700
*END

*D_NET \$427 0.973478
*CAP
1 \$427:1 0.973478
*RES
1 \$427:1 \$427:2 17.105400
2 \$427:1 \$427:3 17.360700
3 \$427:1 \$427:4 13.771500
4 \$427:1 \$427:5 16.870200
5 \$427:1 \$427:6 8.058000
6 \$427:1 \$427:7 8.212700
*END

*D_NET \$428 1.343363
*CAP
1 \$428:1 1.343363
*RES
1 \$428:1 \$428:2 19.166400
2 \$428:1 \$428:3 31.720400
3 \$428:1 \$428:4 37.678600
4 \$428:1 \$428:5 18.380300
5 \$428:1 \$428:6 30.960700
6 \$428:1 \$428:7 37.481600
*END

*D_NET \$43 0.973478
*CAP
1 \$43:1 0.973478
*RES
1 \$43:1 \$43:2 17.105400
2 \$43:1 \$43:3 17.360700
3 \$43:1 \$43:4 13.771500
4 \$43:1 \$43:5 16.870200
5 \$43:1 \$43:6 8.058000
6 \$43:1 \$43:7 8.212700
*END

*D_NET \$430 2.896031
*CAP
1 \$430:1 2.892230
2 \$430:1 clknet_3_1__leaf_clk 0.003801
*RES
1 \$430:1 \$430:2 110.065100
2 \$430:1 \$430:3 20.494200
3 \$430:1 \$430:4 82.156100
4 \$430:1 \$430:5 34.925800
5 \$430:1 \$430:6 48.068200
6 \$430:1 \$430:7 65.091900
7 \$430:1 \$430:8 46.925300
8 \$430:1 \$430:9 65.705800
*END

*D_NET \$431 2.134209
*CAP
1 \$431:1 2.126607
2 \$431:1 _046_ 0.003801
3 \$431:1 _139_ 0.003801
*RES
1 \$431:1 \$431:2 48.046900
2 \$431:1 \$431:3 13.008400
3 \$431:1 \$431:4 63.310200
4 \$431:1 \$431:5 23.606500
5 \$431:1 \$431:6 48.146100
6 \$431:1 \$431:7 47.329500
*END

*D_NET \$432 0.844534
*CAP
1 \$432:1 0.844087
2 \$432:1 _046_ 0.000447
*RES
1 \$432:1 \$432:2 27.599400
2 \$432:1 \$432:3 23.748600
3 \$432:1 \$432:4 22.372100
4 \$432:1 \$432:5 12.741300
5 \$432:1 \$432:6 22.897300
6 \$432:1 \$432:7 13.523900
*END

*D_NET \$433 0.846932
*CAP
1 \$433:1 0.817947
2 \$433:1 _139_ 0.028985
*RES
1 \$433:1 \$433:2 16.527400
2 \$433:1 \$433:3 15.499600
3 \$433:1 \$433:4 10.523900
4 \$433:1 \$433:5 17.319100
5 \$433:1 \$433:6 10.298700
6 \$433:1 \$433:7 13.857700
*END

*D_NET \$434 0.973478
*CAP
1 \$434:1 0.973478
*RES
1 \$434:1 \$434:2 17.105400
2 \$434:1 \$434:3 17.360700
3 \$434:1 \$434:4 13.771500
4 \$434:1 \$434:5 16.870200
5 \$434:1 \$434:6 8.058000
6 \$434:1 \$434:7 8.212700
*END

*D_NET \$435 1.345232
*CAP
1 \$435:1 1.341431
2 \$435:1 rx_receiving 0.003801
*RES
1 \$435:1 \$435:2 19.166400
2 \$435:1 \$435:3 31.720400
3 \$435:1 \$435:4 37.678600
4 \$435:1 \$435:5 18.380300
5 \$435:1 \$435:6 30.960700
6 \$435:1 \$435:7 37.481600
*END

*D_NET \$439 0.789813
*CAP
1 \$439:1 0.780959
2 \$439:1 stuff_consume 0.004710
3 \$439:1 u_stuffer\/_03_ 0.004144
*RES
1 \$439:1 \$439:2 0.894000
2 \$439:1 \$439:3 0.916700
3 \$439:1 \$439:4 0.199700
4 \$439:1 \$439:5 0.535500
5 \$439:1 \$439:6 0.188300
6 \$439:1 \$439:7 0.546800
*END

*D_NET \$44 1.343363
*CAP
1 \$44:1 1.343363
*RES
1 \$44:1 \$44:2 19.166400
2 \$44:1 \$44:3 31.720400
3 \$44:1 \$44:4 37.678600
4 \$44:1 \$44:5 18.380300
5 \$44:1 \$44:6 30.960700
6 \$44:1 \$44:7 37.481600
*END

*D_NET \$440 2.908605
*CAP
1 \$440:1 2.879234
2 \$440:1 _120_ 0.003801
3 \$440:1 _121_ 0.003801
4 \$440:1 clknet_3_5__leaf_clk 0.012909
5 \$440:1 sync_idx[1] 0.008860
*RES
1 \$440:1 \$440:2 110.065100
2 \$440:1 \$440:3 20.494200
3 \$440:1 \$440:4 82.156100
4 \$440:1 \$440:5 34.925800
5 \$440:1 \$440:6 48.068200
6 \$440:1 \$440:7 65.091900
7 \$440:1 \$440:8 46.925300
8 \$440:1 \$440:9 65.705800
*END

*D_NET \$441 2.136638
*CAP
1 \$441:1 2.124098
2 \$441:1 _029_ 0.003801
3 \$441:1 _120_ 0.008739
*RES
1 \$441:1 \$441:2 48.046900
2 \$441:1 \$441:3 13.008400
3 \$441:1 \$441:4 63.310200
4 \$441:1 \$441:5 23.606500
5 \$441:1 \$441:6 48.146100
6 \$441:1 \$441:7 47.329500
*END

*D_NET \$442 0.844534
*CAP
1 \$442:1 0.844087
2 \$442:1 _029_ 0.000447
*RES
1 \$442:1 \$442:2 27.599400
2 \$442:1 \$442:3 23.748600
3 \$442:1 \$442:4 22.372100
4 \$442:1 \$442:5 12.741300
5 \$442:1 \$442:6 22.897300
6 \$442:1 \$442:7 13.523900
*END

*D_NET \$443 0.832679
*CAP
1 \$443:1 0.832679
*RES
1 \$443:1 \$443:2 16.527400
2 \$443:1 \$443:3 15.499600
3 \$443:1 \$443:4 10.523900
4 \$443:1 \$443:5 17.319100
5 \$443:1 \$443:6 10.298700
6 \$443:1 \$443:7 13.857700
*END

*D_NET \$444 0.973478
*CAP
1 \$444:1 0.973478
*RES
1 \$444:1 \$444:2 17.105400
2 \$444:1 \$444:3 17.360700
3 \$444:1 \$444:4 13.771500
4 \$444:1 \$444:5 16.870200
5 \$444:1 \$444:6 8.058000
6 \$444:1 \$444:7 8.212700
*END

*D_NET \$445 1.344135
*CAP
1 \$445:1 1.342565
2 \$445:1 clknet_3_5__leaf_clk 0.001570
*RES
1 \$445:1 \$445:2 19.166400
2 \$445:1 \$445:3 31.720400
3 \$445:1 \$445:4 37.678600
4 \$445:1 \$445:5 18.380300
5 \$445:1 \$445:6 30.960700
6 \$445:1 \$445:7 37.481600
*END

*D_NET \$446 0.312302
*CAP
1 \$446:1 0.312302
*RES
1 \$446:1 \$446:2 0.635800
2 \$446:1 \$446:3 0.035300
3 \$446:1 \$446:4 0.671100
*END

*D_NET \$497 3.421240
*CAP
1 \$497:1 3.421240
*RES
1 \$497:1 \$497:2 145.473400
2 \$497:1 \$497:3 25.585900
3 \$497:1 \$497:4 31.528000
4 \$497:1 \$497:5 126.727000
5 \$497:1 \$497:6 67.830300
6 \$497:1 \$497:7 88.384600
7 \$497:1 \$497:8 64.600500
8 \$497:1 \$497:9 87.164600
*END

*D_NET \$498 0.254866
*CAP
1 \$498:1 0.249742
2 \$498:1 u_decoder\/_02_ 0.005124
*RES
1 \$498:1 \$498:2 0.188500
2 \$498:1 \$498:3 0.186600
3 \$498:1 \$498:4 0.191900
4 \$498:1 \$498:5 0.183600
*END

*D_NET \$499 1.155503
*CAP
1 \$499:1 1.125832
2 \$499:1 u_decoder\/_02_ 0.029671
*RES
1 \$499:1 \$499:2 23.012200
2 \$499:1 \$499:3 20.560900
3 \$499:1 \$499:4 15.878100
4 \$499:1 \$499:5 9.980400
5 \$499:1 \$499:6 16.463600
6 \$499:1 \$499:7 10.596900
*END

*D_NET \$500 2.504949
*CAP
1 \$500:1 2.501148
2 \$500:1 dec_data_bit 0.003801
*RES
1 \$500:1 \$500:2 13.078200
2 \$500:1 \$500:3 48.907600
3 \$500:1 \$500:4 62.186300
4 \$500:1 \$500:5 18.638700
5 \$500:1 \$500:6 48.835100
6 \$500:1 \$500:7 47.117200
*END

*D_NET \$501 1.009046
*CAP
1 \$501:1 0.986220
2 \$501:1 dec_data_bit 0.022826
*RES
1 \$501:1 \$501:2 17.112100
2 \$501:1 \$501:3 17.002900
3 \$501:1 \$501:4 10.221100
4 \$501:1 \$501:5 8.966800
5 \$501:1 \$501:6 13.642900
6 \$501:1 \$501:7 15.110100
*END

*D_NET \$502 1.181820
*CAP
1 \$502:1 1.174218
2 \$502:1 _053_ 0.003801
3 \$502:1 dec_data_strobe 0.003801
*RES
1 \$502:1 \$502:2 19.223900
2 \$502:1 \$502:3 18.752200
3 \$502:1 \$502:4 15.035900
4 \$502:1 \$502:5 9.685900
5 \$502:1 \$502:6 13.864300
6 \$502:1 \$502:7 9.231900
*END

*D_NET \$503 0.235946
*CAP
1 \$503:1 0.212188
2 \$503:1 dec_data_strobe 0.023758
*RES
1 \$503:1 \$503:2 0.178700
2 \$503:1 \$503:3 0.181400
3 \$503:1 \$503:4 0.178100
4 \$503:1 \$503:5 0.175600
*END

*D_NET \$504 1.561173
*CAP
1 \$504:1 1.538539
2 \$504:1 _053_ 0.006776
3 \$504:1 clknet_0_clk 0.015858
*RES
1 \$504:1 \$504:2 33.281900
2 \$504:1 \$504:3 19.438700
3 \$504:1 \$504:4 35.783200
4 \$504:1 \$504:5 37.455900
5 \$504:1 \$504:6 33.998000
6 \$504:1 \$504:7 17.373600
7 \$504:1 \$504:8 15.586800
*END

*D_NET \$505 3.349290
*CAP
1 \$505:1 3.341356
2 \$505:1 clknet_3_4__leaf_clk 0.004133
3 \$505:1 u_eop_detector\/_08_ 0.003801
*RES
1 \$505:1 \$505:2 18.449200
2 \$505:1 \$505:3 103.010800
3 \$505:1 \$505:4 102.186100
4 \$505:1 \$505:5 23.488100
5 \$505:1 \$505:6 50.273000
6 \$505:1 \$505:7 65.263200
7 \$505:1 \$505:8 49.189800
8 \$505:1 \$505:9 65.736900
*END

*D_NET \$506 0.245408
*CAP
1 \$506:1 0.245408
*RES
1 \$506:1 \$506:2 0.261500
2 \$506:1 \$506:3 0.257000
3 \$506:1 \$506:4 0.257000
4 \$506:1 \$506:5 0.261500
*END

*D_NET \$507 0.930265
*CAP
1 \$507:1 0.930265
*RES
1 \$507:1 \$507:2 16.735600
2 \$507:1 \$507:3 16.847700
3 \$507:1 \$507:4 9.242000
4 \$507:1 \$507:5 14.202900
5 \$507:1 \$507:6 9.548700
6 \$507:1 \$507:7 14.794800
*END

*D_NET \$508 2.659470
*CAP
1 \$508:1 2.655669
2 \$508:1 u_eop_detector\/_08_ 0.003801
*RES
1 \$508:1 \$508:2 16.639700
2 \$508:1 \$508:3 89.200800
3 \$508:1 \$508:4 24.001700
4 \$508:1 \$508:5 56.873200
5 \$508:1 \$508:6 62.717200
6 \$508:1 \$508:7 61.758200
*END

*D_NET \$509 1.039480
*CAP
1 \$509:1 1.027167
2 \$509:1 u_eop_detector\/_08_ 0.012313
*RES
1 \$509:1 \$509:2 15.750100
2 \$509:1 \$509:3 17.278100
3 \$509:1 \$509:4 14.787300
4 \$509:1 \$509:5 6.585800
5 \$509:1 \$509:6 7.289200
6 \$509:1 \$509:7 12.082000
7 \$509:1 \$509:8 7.813500
*END

*D_NET \$510 1.380037
*CAP
1 \$510:1 1.372435
2 \$510:1 _053_ 0.003801
3 \$510:1 u_encoder\/_2_ 0.003801
*RES
1 \$510:1 \$510:2 19.566700
2 \$510:1 \$510:3 20.063400
3 \$510:1 \$510:4 6.041000
4 \$510:1 \$510:5 11.298000
5 \$510:1 \$510:6 16.587000
6 \$510:1 \$510:7 11.035300
*END

*D_NET \$511 0.692825
*CAP
1 \$511:1 0.687206
2 \$511:1 _053_ 0.005619
*RES
1 \$511:1 \$511:2 0.818700
2 \$511:1 \$511:3 0.394700
3 \$511:1 \$511:4 0.461700
4 \$511:1 \$511:5 0.356400
5 \$511:1 \$511:6 0.615900
*END

*D_NET \$512 1.352245
*CAP
1 \$512:1 1.335057
2 \$512:1 clknet_0_clk 0.005619
3 \$512:1 u_encoder\/_2_ 0.011569
*RES
1 \$512:1 \$512:2 31.119000
2 \$512:1 \$512:3 31.225900
3 \$512:1 \$512:4 18.183100
4 \$512:1 \$512:5 19.055900
5 \$512:1 \$512:6 37.229900
6 \$512:1 \$512:7 38.002800
*END

*D_NET \$516 1.079327
*CAP
1 \$516:1 1.066920
2 \$516:1 _120_ 0.004642
3 \$516:1 _121_ 0.003964
4 \$516:1 _122_ 0.003801
*RES
1 \$516:1 \$516:2 13.242300
2 \$516:1 \$516:3 21.267000
3 \$516:1 \$516:4 18.132100
4 \$516:1 \$516:5 12.683900
5 \$516:1 \$516:6 16.491100
*END

*D_NET \$518 2.904039
*CAP
1 \$518:1 2.883955
2 \$518:1 _030_ 0.003801
3 \$518:1 _120_ 0.003801
4 \$518:1 _123_ 0.004879
5 \$518:1 clknet_3_5__leaf_clk 0.007603
*RES
1 \$518:1 \$518:2 110.065100
2 \$518:1 \$518:3 20.494200
3 \$518:1 \$518:4 82.156100
4 \$518:1 \$518:5 34.925800
5 \$518:1 \$518:6 48.068200
6 \$518:1 \$518:7 65.091900
7 \$518:1 \$518:8 46.925300
8 \$518:1 \$518:9 65.705800
*END

*D_NET \$519 2.141517
*CAP
1 \$519:1 2.119054
2 \$519:1 _119_ 0.006528
3 \$519:1 _120_ 0.004532
4 \$519:1 _123_ 0.003801
5 \$519:1 sync_idx[1] 0.003801
6 \$519:1 sync_idx[2] 0.003801
*RES
1 \$519:1 \$519:2 23.606500
2 \$519:1 \$519:3 48.046900
3 \$519:1 \$519:4 13.008400
4 \$519:1 \$519:5 63.310200
5 \$519:1 \$519:6 48.146100
6 \$519:1 \$519:7 47.329500
*END

*D_NET \$520 0.855059
*CAP
1 \$520:1 0.833207
2 \$520:1 _030_ 0.001483
3 \$520:1 _120_ 0.005619
4 \$520:1 _123_ 0.005619
5 \$520:1 sync_idx[1] 0.005619
6 \$520:1 sync_idx[2] 0.003512
*RES
1 \$520:1 \$520:2 27.599400
2 \$520:1 \$520:3 23.748600
3 \$520:1 \$520:4 22.372100
4 \$520:1 \$520:5 12.741300
5 \$520:1 \$520:6 22.897300
6 \$520:1 \$520:7 13.523900
*END

*D_NET \$521 0.837169
*CAP
1 \$521:1 0.828038
2 \$521:1 sync_idx[1] 0.003512
3 \$521:1 sync_idx[2] 0.005619
*RES
1 \$521:1 \$521:2 16.527400
2 \$521:1 \$521:3 15.499600
3 \$521:1 \$521:4 10.523900
4 \$521:1 \$521:5 17.319100
5 \$521:1 \$521:6 10.298700
6 \$521:1 \$521:7 13.857700
*END

*D_NET \$522 0.981259
*CAP
1 \$522:1 0.965435
2 \$522:1 _119_ 0.008222
3 \$522:1 _126_ 0.003801
4 \$522:1 sync_idx[0] 0.003801
*RES
1 \$522:1 \$522:2 17.360700
2 \$522:1 \$522:3 17.105400
3 \$522:1 \$522:4 13.771500
4 \$522:1 \$522:5 16.870200
5 \$522:1 \$522:6 8.058000
6 \$522:1 \$522:7 8.212700
*END

*D_NET \$523 1.346866
*CAP
1 \$523:1 1.339742
2 \$523:1 _126_ 0.005619
3 \$523:1 sync_idx[0] 0.001505
*RES
1 \$523:1 \$523:2 18.380300
2 \$523:1 \$523:3 30.960700
3 \$523:1 \$523:4 37.678600
4 \$523:1 \$523:5 19.166400
5 \$523:1 \$523:6 31.720400
6 \$523:1 \$523:7 37.481600
*END

*D_NET \$541 0.314171
*CAP
1 \$541:1 0.310370
2 \$541:1 u_decoder\/_02_ 0.003801
*RES
1 \$541:1 \$541:2 0.671100
2 \$541:1 \$541:3 0.671100
3 \$541:1 \$541:4 0.001000
*END

*D_NET \$542 1.478662
*CAP
1 \$542:1 1.452122
2 \$542:1 dec_data_strobe 0.003801
3 \$542:1 rx_receiving 0.003801
4 \$542:1 u_destuffer\/_08_ 0.011336
5 \$542:1 u_destuffer\/_11_ 0.003801
6 \$542:1 u_destuffer\/_12_ 0.003801
*RES
1 \$542:1 \$542:2 0.962000
2 \$542:1 \$542:3 0.946500
3 \$542:1 \$542:4 0.454200
4 \$542:1 \$542:5 0.238400
5 \$542:1 \$542:6 0.777200
6 \$542:1 \$542:7 0.438700
7 \$542:1 \$542:8 0.100100
8 \$542:1 \$542:9 0.623400
9 \$542:1 \$542:10 0.608000
10 \$542:1 \$542:11 0.269400
11 \$542:1 \$542:12 0.069100
12 \$542:1 \$542:13 0.792700
*END

*D_NET \$543 0.320435
*CAP
1 \$543:1 0.303896
2 \$543:1 _007_ 0.003801
3 \$543:1 _061_ 0.007054
4 \$543:1 clknet_3_5__leaf_clk 0.005684
*RES
1 \$543:1 \$543:2 0.635800
2 \$543:1 \$543:3 0.035300
3 \$543:1 \$543:4 0.671100
*END

*D_NET \$552 3.424078
*CAP
1 \$552:1 3.418307
2 \$552:1 clknet_3_0__leaf_clk 0.005771
*RES
1 \$552:1 \$552:2 25.585900
2 \$552:1 \$552:3 145.473400
3 \$552:1 \$552:4 126.727000
4 \$552:1 \$552:5 31.528000
5 \$552:1 \$552:6 67.830300
6 \$552:1 \$552:7 88.384600
7 \$552:1 \$552:8 64.600500
8 \$552:1 \$552:9 87.164600
*END

*D_NET \$553 2.506818
*CAP
1 \$553:1 2.499216
2 \$553:1 u_destuffer\/_05_ 0.003801
3 \$553:1 u_destuffer\/_08_ 0.003801
*RES
1 \$553:1 \$553:2 13.078200
2 \$553:1 \$553:3 48.907600
3 \$553:1 \$553:4 62.186300
4 \$553:1 \$553:5 18.638700
5 \$553:1 \$553:6 48.835100
6 \$553:1 \$553:7 47.117200
*END

*D_NET \$554 3.428935
*CAP
1 \$554:1 3.413287
2 \$554:1 clknet_3_0__leaf_clk 0.015648
*RES
1 \$554:1 \$554:2 25.585900
2 \$554:1 \$554:3 145.473400
3 \$554:1 \$554:4 126.727000
4 \$554:1 \$554:5 31.528000
5 \$554:1 \$554:6 67.830300
6 \$554:1 \$554:7 88.384600
7 \$554:1 \$554:8 64.600500
8 \$554:1 \$554:9 87.164600
*END

*D_NET \$555 2.507717
*CAP
1 \$555:1 2.498289
2 \$555:1 clknet_3_0__leaf_clk 0.004715
3 \$555:1 u_decoder\/_02_ 0.004713
*RES
1 \$555:1 \$555:2 13.078200
2 \$555:1 \$555:3 48.907600
3 \$555:1 \$555:4 18.638700
4 \$555:1 \$555:5 62.186300
5 \$555:1 \$555:6 48.835100
6 \$555:1 \$555:7 47.117200
*END

*D_NET \$560 0.254866
*CAP
1 \$560:1 0.249742
2 \$560:1 u_destuffer\/_05_ 0.005124
*RES
1 \$560:1 \$560:2 0.188500
2 \$560:1 \$560:3 0.186600
3 \$560:1 \$560:4 0.191900
4 \$560:1 \$560:5 0.183600
*END

*D_NET \$561 1.144691
*CAP
1 \$561:1 1.137006
2 \$561:1 u_destuffer\/_05_ 0.003884
3 \$561:1 u_destuffer\/_08_ 0.003801
*RES
1 \$561:1 \$561:2 23.012200
2 \$561:1 \$561:3 20.560900
3 \$561:1 \$561:4 15.878100
4 \$561:1 \$561:5 9.980400
5 \$561:1 \$561:6 16.463600
6 \$561:1 \$561:7 10.596900
*END

*D_NET \$562 0.315837
*CAP
1 \$562:1 0.308648
2 \$562:1 clknet_3_0__leaf_clk 0.003388
3 \$562:1 u_destuffer\/_08_ 0.003801
*RES
1 \$562:1 \$562:2 0.671100
2 \$562:1 \$562:3 0.671100
3 \$562:1 \$562:4 0.001000
*END

*D_NET \$563 0.999690
*CAP
1 \$563:1 0.995889
2 \$563:1 u_destuffer\/_08_ 0.003801
*RES
1 \$563:1 \$563:2 17.112100
2 \$563:1 \$563:3 17.002900
3 \$563:1 \$563:4 10.221100
4 \$563:1 \$563:5 8.966800
5 \$563:1 \$563:6 13.642900
6 \$563:1 \$563:7 15.110100
*END

*D_NET \$564 1.183769
*CAP
1 \$564:1 1.172203
2 \$564:1 dec_data_strobe 0.003801
3 \$564:1 rx_receiving 0.003964
4 \$564:1 u_destuffer\/_12_ 0.003801
*RES
1 \$564:1 \$564:2 18.752200
2 \$564:1 \$564:3 19.223900
3 \$564:1 \$564:4 15.035900
4 \$564:1 \$564:5 9.685900
5 \$564:1 \$564:6 13.864300
6 \$564:1 \$564:7 9.231900
*END

*D_NET \$565 1.553375
*CAP
1 \$565:1 1.546599
2 \$565:1 u_destuffer\/_12_ 0.006776
*RES
1 \$565:1 \$565:2 19.438700
2 \$565:1 \$565:3 33.281900
3 \$565:1 \$565:4 35.783200
4 \$565:1 \$565:5 37.455900
5 \$565:1 \$565:6 33.998000
6 \$565:1 \$565:7 17.373600
7 \$565:1 \$565:8 15.586800
*END

*D_NET \$567 0.252346
*CAP
1 \$567:1 0.252346
*RES
1 \$567:1 \$567:2 0.188500
2 \$567:1 \$567:3 0.186600
3 \$567:1 \$567:4 0.191900
4 \$567:1 \$567:5 0.183600
*END

*D_NET \$568 1.140912
*CAP
1 \$568:1 1.140912
*RES
1 \$568:1 \$568:2 23.012200
2 \$568:1 \$568:3 20.560900
3 \$568:1 \$568:4 15.878100
4 \$568:1 \$568:5 9.980400
5 \$568:1 \$568:6 16.463600
6 \$568:1 \$568:7 10.596900
*END

*D_NET \$569 0.312302
*CAP
1 \$569:1 0.312302
*RES
1 \$569:1 \$569:2 0.671100
2 \$569:1 \$569:3 0.671100
3 \$569:1 \$569:4 0.001000
*END

*D_NET \$570 0.997821
*CAP
1 \$570:1 0.997821
*RES
1 \$570:1 \$570:2 17.112100
2 \$570:1 \$570:3 17.002900
3 \$570:1 \$570:4 10.221100
4 \$570:1 \$570:5 8.966800
5 \$570:1 \$570:6 13.642900
6 \$570:1 \$570:7 15.110100
*END

*D_NET \$571 1.179951
*CAP
1 \$571:1 1.176150
2 \$571:1 dec_data_bit 0.003801
*RES
1 \$571:1 \$571:2 18.752200
2 \$571:1 \$571:3 19.223900
3 \$571:1 \$571:4 15.035900
4 \$571:1 \$571:5 9.685900
5 \$571:1 \$571:6 13.864300
6 \$571:1 \$571:7 9.231900
*END

*D_NET \$572 1.555244
*CAP
1 \$572:1 1.544667
2 \$572:1 _053_ 0.003801
3 \$572:1 dec_data_bit 0.006776
*RES
1 \$572:1 \$572:2 19.438700
2 \$572:1 \$572:3 33.281900
3 \$572:1 \$572:4 35.783200
4 \$572:1 \$572:5 37.455900
5 \$572:1 \$572:6 33.998000
6 \$572:1 \$572:7 17.373600
7 \$572:1 \$572:8 15.586800
*END

*D_NET \$574 1.130690
*CAP
1 \$574:1 1.130690
*RES
1 \$574:1 \$574:2 17.797300
2 \$574:1 \$574:3 15.959000
3 \$574:1 \$574:4 14.705300
4 \$574:1 \$574:5 10.608600
5 \$574:1 \$574:6 13.807700
6 \$574:1 \$574:7 9.230600
*END

*D_NET \$575 1.217507
*CAP
1 \$575:1 1.209905
2 \$575:1 dec_bit_level 0.003801
3 \$575:1 u_decoder\/prev_level 0.003801
*RES
1 \$575:1 \$575:2 31.800600
2 \$575:1 \$575:3 25.661100
3 \$575:1 \$575:4 22.143400
4 \$575:1 \$575:5 27.185500
*END

*D_NET \$576 1.121919
*CAP
1 \$576:1 1.118118
2 \$576:1 u_encoder\/_1_ 0.003801
*RES
1 \$576:1 \$576:2 15.008600
2 \$576:1 \$576:3 20.605000
3 \$576:1 \$576:4 18.928400
4 \$576:1 \$576:5 15.930500
5 \$576:1 \$576:6 11.580900
*END

*D_NET \$577 1.558741
*CAP
1 \$577:1 1.546139
2 \$577:1 clknet_0_clk 0.008801
3 \$577:1 nrzi_level 0.003801
*RES
1 \$577:1 \$577:2 16.699600
2 \$577:1 \$577:3 24.206200
3 \$577:1 \$577:4 24.607900
4 \$577:1 \$577:5 16.983400
5 \$577:1 \$577:6 20.146800
6 \$577:1 \$577:7 29.217800
7 \$577:1 \$577:8 20.488900
8 \$577:1 \$577:9 13.968000
*END

*D_NET \$578 1.134495
*CAP
1 \$578:1 1.126757
2 \$578:1 _063_ 0.000136
3 \$578:1 _076_ 0.003801
4 \$578:1 stuff_bit_out 0.003801
*RES
1 \$578:1 \$578:2 15.959000
2 \$578:1 \$578:3 17.797300
3 \$578:1 \$578:4 10.608600
4 \$578:1 \$578:5 14.705300
5 \$578:1 \$578:6 9.230600
6 \$578:1 \$578:7 13.807700
*END

*D_NET \$579 1.216407
*CAP
1 \$579:1 1.211044
2 \$579:1 _063_ 0.005363
*RES
1 \$579:1 \$579:2 22.143400
2 \$579:1 \$579:3 25.661100
3 \$579:1 \$579:4 31.800600
4 \$579:1 \$579:5 27.185500
*END

*D_NET \$581 2.512711
*CAP
1 \$581:1 2.508910
2 \$581:1 _064_ 0.003801
*RES
1 \$581:1 \$581:2 25.357500
2 \$581:1 \$581:3 17.460200
3 \$581:1 \$581:4 17.679900
4 \$581:1 \$581:5 36.428000
5 \$581:1 \$581:6 36.954100
6 \$581:1 \$581:7 25.810100
7 \$581:1 \$581:8 17.679900
8 \$581:1 \$581:9 17.460200
9 \$581:1 \$581:10 36.428000
10 \$581:1 \$581:11 25.357500
11 \$581:1 \$581:12 25.810100
12 \$581:1 \$581:13 36.954100
*END

*D_NET \$582 0.316446
*CAP
1 \$582:1 0.308018
2 \$582:1 _052_ 0.003801
3 \$582:1 _120_ 0.003801
4 \$582:1 sync_idx[1] 0.000826
*RES
1 \$582:1 \$582:2 0.662600
2 \$582:1 \$582:3 0.671100
3 \$582:1 \$582:4 0.008500
*END

*D_NET \$583 0.316040
*CAP
1 \$583:1 0.308438
2 \$583:1 _120_ 0.003801
3 \$583:1 _122_ 0.003801
*RES
1 \$583:1 \$583:2 0.650500
2 \$583:1 \$583:3 0.020600
3 \$583:1 \$583:4 0.671100
*END

*D_NET \$584 0.314171
*CAP
1 \$584:1 0.310370
2 \$584:1 clknet_3_5__leaf_clk 0.003801
*RES
1 \$584:1 \$584:2 0.650500
2 \$584:1 \$584:3 0.020600
3 \$584:1 \$584:4 0.671100
*END

*D_NET \$586 1.425882
*CAP
1 \$586:1 1.358300
2 \$586:1 _119_ 0.042740
3 \$586:1 _120_ 0.005619
4 \$586:1 sync_idx[0] 0.005019
5 \$586:1 sync_idx[1] 0.010485
6 \$586:1 sync_idx[2] 0.003719
*RES
1 \$586:1 \$586:2 13.074400
2 \$586:1 \$586:3 20.054900
3 \$586:1 \$586:4 14.337600
4 \$586:1 \$586:5 17.436700
5 \$586:1 \$586:6 9.326200
6 \$586:1 \$586:7 8.577400
*END

*D_NET \$588 0.235946
*CAP
1 \$588:1 0.212188
2 \$588:1 dec_data_strobe 0.023758
*RES
1 \$588:1 \$588:2 0.178700
2 \$588:1 \$588:3 0.181400
3 \$588:1 \$588:4 0.178100
4 \$588:1 \$588:5 0.175600
*END

*D_NET \$590 0.224263
*CAP
1 \$590:1 0.224263
*RES
1 \$590:1 \$590:2 0.178700
2 \$590:1 \$590:3 0.181400
3 \$590:1 \$590:4 0.178100
4 \$590:1 \$590:5 0.175600
*END

*D_NET \$605 0.345868
*CAP
1 \$605:1 0.340394
2 \$605:1 clknet_0_clk 0.003801
3 \$605:1 nrzi_level 0.001673
*RES
1 \$605:1 \$605:2 0.741500
2 \$605:1 \$605:3 0.001000
3 \$605:1 \$605:4 0.741500
*END

*D_NET \$606 0.664002
*CAP
1 \$606:1 0.648152
2 \$606:1 u_stuffer\/_03_ 0.015850
*RES
1 \$606:1 \$606:2 1.091700
2 \$606:1 \$606:3 1.091700
3 \$606:1 \$606:4 0.363900
4 \$606:1 \$606:5 0.363900
*END

*D_NET \$631 1.707286
*CAP
1 \$631:1 1.699683
2 \$631:1 dec_data_bit 0.007603
*RES
1 \$631:1 \$631:2 16.448400
2 \$631:1 \$631:3 23.905800
3 \$631:1 \$631:4 16.161900
4 \$631:1 \$631:5 23.905800
5 \$631:1 \$631:6 22.317000
6 \$631:1 \$631:7 17.875500
7 \$631:1 \$631:8 25.339300
8 \$631:1 \$631:9 15.064400
*END

*D_NET \$632 1.123227
*CAP
1 \$632:1 1.115625
2 \$632:1 _053_ 0.003801
3 \$632:1 u_decoder\/_04_ 0.003801
*RES
1 \$632:1 \$632:2 28.301000
2 \$632:1 \$632:3 35.373400
3 \$632:1 \$632:4 31.303900
4 \$632:1 \$632:5 31.869700
*END

*D_NET \$634 1.140196
*CAP
1 \$634:1 1.120865
2 \$634:1 stuff_consume 0.015530
3 \$634:1 tx_state[2] 0.003801
*RES
1 \$634:1 \$634:2 15.959000
2 \$634:1 \$634:3 17.797300
3 \$634:1 \$634:4 10.608600
4 \$634:1 \$634:5 14.705300
5 \$634:1 \$634:6 9.230600
6 \$634:1 \$634:7 13.807700
*END

*D_NET \$636 1.236392
*CAP
1 \$636:1 1.190388
2 \$636:1 _064_ 0.042203
3 \$636:1 entering_sync 0.003801
*RES
1 \$636:1 \$636:2 22.143400
2 \$636:1 \$636:3 25.661100
3 \$636:1 \$636:4 31.800600
4 \$636:1 \$636:5 27.185500
*END

*D_NET \$637 2.510842
*CAP
1 \$637:1 2.510842
*RES
1 \$637:1 \$637:2 17.460200
2 \$637:1 \$637:3 17.679900
3 \$637:1 \$637:4 25.357500
4 \$637:1 \$637:5 36.428000
5 \$637:1 \$637:6 36.954100
6 \$637:1 \$637:7 17.460200
7 \$637:1 \$637:8 25.810100
8 \$637:1 \$637:9 17.679900
9 \$637:1 \$637:10 36.428000
10 \$637:1 \$637:11 25.357500
11 \$637:1 \$637:12 25.810100
12 \$637:1 \$637:13 36.954100
*END

*D_NET \$639 1.075095
*CAP
1 \$639:1 1.071294
2 \$639:1 stuff_consume 0.003801
*RES
1 \$639:1 \$639:2 13.242300
2 \$639:1 \$639:3 21.267000
3 \$639:1 \$639:4 18.132100
4 \$639:1 \$639:5 12.683900
5 \$639:1 \$639:6 16.491100
*END

*D_NET \$643 1.077045
*CAP
1 \$643:1 1.069280
2 \$643:1 _119_ 0.003801
3 \$643:1 sync_idx[0] 0.003964
*RES
1 \$643:1 \$643:2 13.242300
2 \$643:1 \$643:3 21.267000
3 \$643:1 \$643:4 18.132100
4 \$643:1 \$643:5 12.683900
5 \$643:1 \$643:6 16.491100
*END

*D_NET \$65 2.896031
*CAP
1 \$65:1 2.892230
2 \$65:1 clknet_3_0__leaf_clk 0.003801
*RES
1 \$65:1 \$65:2 20.494200
2 \$65:1 \$65:3 110.065100
3 \$65:1 \$65:4 82.156100
4 \$65:1 \$65:5 34.925800
5 \$65:1 \$65:6 48.068200
6 \$65:1 \$65:7 65.091900
7 \$65:1 \$65:8 46.925300
8 \$65:1 \$65:9 65.705800
*END

*D_NET \$66 2.133681
*CAP
1 \$66:1 2.127153
2 \$66:1 u_eop_detector\/_01_ 0.006528
*RES
1 \$66:1 \$66:2 13.008400
2 \$66:1 \$66:3 48.046900
3 \$66:1 \$66:4 23.606500
4 \$66:1 \$66:5 63.310200
5 \$66:1 \$66:6 48.146100
6 \$66:1 \$66:7 47.329500
*END

*D_NET \$664 0.314171
*CAP
1 \$664:1 0.310370
2 \$664:1 dec_data_strobe 0.003801
*RES
1 \$664:1 \$664:2 0.635800
2 \$664:1 \$664:3 0.035300
3 \$664:1 \$664:4 0.671100
*END

*D_NET \$665 1.707286
*CAP
1 \$665:1 1.699683
2 \$665:1 dec_data_bit 0.007603
*RES
1 \$665:1 \$665:2 16.448400
2 \$665:1 \$665:3 23.905800
3 \$665:1 \$665:4 16.161900
4 \$665:1 \$665:5 23.905800
5 \$665:1 \$665:6 22.317000
6 \$665:1 \$665:7 17.875500
7 \$665:1 \$665:8 25.339300
8 \$665:1 \$665:9 15.064400
*END

*D_NET \$667 1.150078
*CAP
1 \$667:1 1.087873
2 \$667:1 _053_ 0.058404
3 \$667:1 rx_out_bit 0.003801
*RES
1 \$667:1 \$667:2 28.301000
2 \$667:1 \$667:3 35.373400
3 \$667:1 \$667:4 31.303900
4 \$667:1 \$667:5 31.869700
*END

*D_NET \$668 1.099120
*CAP
1 \$668:1 1.099120
*RES
1 \$668:1 \$668:2 15.496500
2 \$668:1 \$668:3 21.320900
3 \$668:1 \$668:4 18.137300
4 \$668:1 \$668:5 15.871400
5 \$668:1 \$668:6 11.125600
*END

*D_NET \$67 0.846183
*CAP
1 \$67:1 0.842382
2 \$67:1 u_eop_detector\/_01_ 0.003801
*RES
1 \$67:1 \$67:2 27.599400
2 \$67:1 \$67:3 23.748600
3 \$67:1 \$67:4 22.372100
4 \$67:1 \$67:5 12.741300
5 \$67:1 \$67:6 22.897300
6 \$67:1 \$67:7 13.523900
*END

*D_NET \$670 2.896031
*CAP
1 \$670:1 2.892230
2 \$670:1 clknet_3_5__leaf_clk 0.003801
*RES
1 \$670:1 \$670:2 110.065100
2 \$670:1 \$670:3 20.494200
3 \$670:1 \$670:4 82.156100
4 \$670:1 \$670:5 34.925800
5 \$670:1 \$670:6 48.068200
6 \$670:1 \$670:7 65.091900
7 \$670:1 \$670:8 46.925300
8 \$670:1 \$670:9 65.705800
*END

*D_NET \$671 2.900504
*CAP
1 \$671:1 2.887607
2 \$671:1 _120_ 0.003801
3 \$671:1 _126_ 0.003801
4 \$671:1 clknet_3_5__leaf_clk 0.005295
*RES
1 \$671:1 \$671:2 110.065100
2 \$671:1 \$671:3 20.494200
3 \$671:1 \$671:4 82.156100
4 \$671:1 \$671:5 34.925800
5 \$671:1 \$671:6 48.068200
6 \$671:1 \$671:7 65.091900
7 \$671:1 \$671:8 46.925300
8 \$671:1 \$671:9 65.705800
*END

*D_NET \$673 1.006752
*CAP
1 \$673:1 1.002951
2 \$673:1 _067_ 0.003801
*RES
1 \$673:1 \$673:2 16.737100
2 \$673:1 \$673:3 17.531100
3 \$673:1 \$673:4 21.630700
4 \$673:1 \$673:5 9.756800
5 \$673:1 \$673:6 15.752800
*END

*D_NET \$675 0.339900
*CAP
1 \$675:1 0.336099
2 \$675:1 dec_bit_strobe 0.003801
*RES
1 \$675:1 \$675:2 0.718300
2 \$675:1 \$675:3 0.729800
3 \$675:1 \$675:4 0.011500
*END

*D_NET \$676 2.151262
*CAP
1 \$676:1 2.108981
2 \$676:1 _002_ 0.003801
3 \$676:1 _012_ 0.028151
4 \$676:1 _066_ 0.006528
5 \$676:1 stuff_pending_after 0.003801
*RES
1 \$676:1 \$676:2 48.046900
2 \$676:1 \$676:3 13.008400
3 \$676:1 \$676:4 63.310200
4 \$676:1 \$676:5 23.606500
5 \$676:1 \$676:6 48.146100
6 \$676:1 \$676:7 47.329500
*END

*D_NET \$677 0.847242
*CAP
1 \$677:1 0.841287
2 \$677:1 _002_ 0.000336
3 \$677:1 stuff_pending_after 0.005619
*RES
1 \$677:1 \$677:2 27.599400
2 \$677:1 \$677:3 23.748600
3 \$677:1 \$677:4 22.372100
4 \$677:1 \$677:5 12.741300
5 \$677:1 \$677:6 22.897300
6 \$677:1 \$677:7 13.523900
*END

*D_NET \$678 0.838386
*CAP
1 \$678:1 0.826780
2 \$678:1 _002_ 0.008094
3 \$678:1 stuff_pending_after 0.003512
*RES
1 \$678:1 \$678:2 16.527400
2 \$678:1 \$678:3 15.499600
3 \$678:1 \$678:4 10.523900
4 \$678:1 \$678:5 17.319100
5 \$678:1 \$678:6 10.298700
6 \$678:1 \$678:7 13.857700
*END

*D_NET \$679 0.975347
*CAP
1 \$679:1 0.971546
2 \$679:1 _012_ 0.003801
*RES
1 \$679:1 \$679:2 17.105400
2 \$679:1 \$679:3 17.360700
3 \$679:1 \$679:4 13.771500
4 \$679:1 \$679:5 16.870200
5 \$679:1 \$679:6 8.058000
6 \$679:1 \$679:7 8.212700
*END

*D_NET \$68 0.837895
*CAP
1 \$68:1 0.827288
2 \$68:1 u_eop_detector\/_01_ 0.010607
*RES
1 \$68:1 \$68:2 16.527400
2 \$68:1 \$68:3 15.499600
3 \$68:1 \$68:4 17.319100
4 \$68:1 \$68:5 10.523900
5 \$68:1 \$68:6 10.298700
6 \$68:1 \$68:7 13.857700
*END

*D_NET \$680 1.343830
*CAP
1 \$680:1 1.342880
2 \$680:1 tx_state[6] 0.000950
*RES
1 \$680:1 \$680:2 19.166400
2 \$680:1 \$680:3 31.720400
3 \$680:1 \$680:4 37.678600
4 \$680:1 \$680:5 18.380300
5 \$680:1 \$680:6 30.960700
6 \$680:1 \$680:7 37.481600
*END

*D_NET \$681 1.079480
*CAP
1 \$681:1 1.059251
2 \$681:1 _062_ 0.007603
3 \$681:1 tx_state[4] 0.012626
*RES
1 \$681:1 \$681:2 18.099400
2 \$681:1 \$681:3 14.315200
3 \$681:1 \$681:4 21.244800
4 \$681:1 \$681:5 16.029100
5 \$681:1 \$681:6 12.128100
*END

*D_NET \$682 2.146095
*CAP
1 \$682:1 2.114323
2 \$682:1 _032_ 0.003801
3 \$682:1 _126_ 0.027971
*RES
1 \$682:1 \$682:2 48.046900
2 \$682:1 \$682:3 13.008400
3 \$682:1 \$682:4 63.310200
4 \$682:1 \$682:5 23.606500
5 \$682:1 \$682:6 48.146100
6 \$682:1 \$682:7 47.329500
*END

*D_NET \$683 0.844534
*CAP
1 \$683:1 0.844087
2 \$683:1 _032_ 0.000447
*RES
1 \$683:1 \$683:2 27.599400
2 \$683:1 \$683:3 23.748600
3 \$683:1 \$683:4 22.372100
4 \$683:1 \$683:5 12.741300
5 \$683:1 \$683:6 22.897300
6 \$683:1 \$683:7 13.523900
*END

*D_NET \$684 0.832679
*CAP
1 \$684:1 0.832679
*RES
1 \$684:1 \$684:2 16.527400
2 \$684:1 \$684:3 15.499600
3 \$684:1 \$684:4 10.523900
4 \$684:1 \$684:5 17.319100
5 \$684:1 \$684:6 10.298700
6 \$684:1 \$684:7 13.857700
*END

*D_NET \$685 0.973478
*CAP
1 \$685:1 0.973478
*RES
1 \$685:1 \$685:2 17.105400
2 \$685:1 \$685:3 17.360700
3 \$685:1 \$685:4 13.771500
4 \$685:1 \$685:5 16.870200
5 \$685:1 \$685:6 8.058000
6 \$685:1 \$685:7 8.212700
*END

*D_NET \$686 1.343363
*CAP
1 \$686:1 1.343363
*RES
1 \$686:1 \$686:2 19.166400
2 \$686:1 \$686:3 31.720400
3 \$686:1 \$686:4 37.678600
4 \$686:1 \$686:5 18.380300
5 \$686:1 \$686:6 30.960700
6 \$686:1 \$686:7 37.481600
*END

*D_NET \$69 0.982449
*CAP
1 \$69:1 0.964207
2 \$69:1 u_eop_detector\/_01_ 0.004266
3 \$69:1 u_eop_detector\/_16_ 0.013976
*RES
1 \$69:1 \$69:2 17.105400
2 \$69:1 \$69:3 17.360700
3 \$69:1 \$69:4 13.771500
4 \$69:1 \$69:5 16.870200
5 \$69:1 \$69:6 8.058000
6 \$69:1 \$69:7 8.212700
*END

*D_NET \$70 1.346126
*CAP
1 \$70:1 1.340507
2 \$70:1 u_eop_detector\/_16_ 0.005619
*RES
1 \$70:1 \$70:2 31.720400
2 \$70:1 \$70:3 19.166400
3 \$70:1 \$70:4 37.678600
4 \$70:1 \$70:5 30.960700
5 \$70:1 \$70:6 18.380300
6 \$70:1 \$70:7 37.481600
*END

*D_NET \$707 0.300449
*CAP
1 \$707:1 0.296648
2 \$707:1 u_decoder\/prev_level 0.003801
*RES
1 \$707:1 \$707:2 0.639800
2 \$707:1 \$707:3 0.639800
3 \$707:1 \$707:4 0.001000
*END

*D_NET \$71 1.411303
*CAP
1 \$71:1 1.373368
2 \$71:1 u_eop_detector\/_15_ 0.003801
3 \$71:1 u_eop_detector\/_25_ 0.014509
4 \$71:1 u_eop_detector\/se0_count[2] 0.019625
*RES
1 \$71:1 \$71:2 17.436700
2 \$71:1 \$71:3 20.054900
3 \$71:1 \$71:4 14.337600
4 \$71:1 \$71:5 13.074400
5 \$71:1 \$71:6 8.577400
6 \$71:1 \$71:7 9.326200
*END

*D_NET \$720 1.108409
*CAP
1 \$720:1 1.089519
2 \$720:1 u_destuffer\/_10_ 0.003801
3 \$720:1 u_destuffer\/_13_ 0.015089
*RES
1 \$720:1 \$720:2 15.496500
2 \$720:1 \$720:3 21.320900
3 \$720:1 \$720:4 18.137300
4 \$720:1 \$720:5 15.871400
5 \$720:1 \$720:6 11.125600
*END

*D_NET \$722 0.300449
*CAP
1 \$722:1 0.296648
2 \$722:1 u_destuffer\/_12_ 0.003801
*RES
1 \$722:1 \$722:2 0.639800
2 \$722:1 \$722:3 0.001000
3 \$722:1 \$722:4 0.639800
*END

*D_NET \$724 1.440810
*CAP
1 \$724:1 1.433208
2 \$724:1 dec_data_bit 0.003801
3 \$724:1 u_destuffer\/_07_ 0.003801
*RES
1 \$724:1 \$724:2 18.425600
2 \$724:1 \$724:3 16.005600
3 \$724:1 \$724:4 16.351000
4 \$724:1 \$724:5 3.284800
5 \$724:1 \$724:6 7.119400
6 \$724:1 \$724:7 7.905000
7 \$724:1 \$724:8 14.345100
*END

*D_NET \$726 3.354340
*CAP
1 \$726:1 3.336136
2 \$726:1 _053_ 0.014403
3 \$726:1 clknet_3_1__leaf_clk 0.003801
*RES
1 \$726:1 \$726:2 23.488100
2 \$726:1 \$726:3 102.186100
3 \$726:1 \$726:4 103.010800
4 \$726:1 \$726:5 18.449200
5 \$726:1 \$726:6 50.273000
6 \$726:1 \$726:7 65.263200
7 \$726:1 \$726:8 49.189800
8 \$726:1 \$726:9 65.736900
*END

*D_NET \$727 0.245408
*CAP
1 \$727:1 0.245408
*RES
1 \$727:1 \$727:2 0.257000
2 \$727:1 \$727:3 0.261500
3 \$727:1 \$727:4 0.261500
4 \$727:1 \$727:5 0.257000
*END

*D_NET \$728 0.930265
*CAP
1 \$728:1 0.930265
*RES
1 \$728:1 \$728:2 16.847700
2 \$728:1 \$728:3 16.735600
3 \$728:1 \$728:4 14.202900
4 \$728:1 \$728:5 9.242000
5 \$728:1 \$728:6 14.794800
6 \$728:1 \$728:7 9.548700
*END

*D_NET \$729 1.033425
*CAP
1 \$729:1 1.033425
*RES
1 \$729:1 \$729:2 14.787300
2 \$729:1 \$729:3 17.278100
3 \$729:1 \$729:4 15.750100
4 \$729:1 \$729:5 7.289200
5 \$729:1 \$729:6 6.585800
6 \$729:1 \$729:7 7.813500
7 \$729:1 \$729:8 12.082000
*END

*D_NET \$730 2.657601
*CAP
1 \$730:1 2.657601
*RES
1 \$730:1 \$730:2 24.001700
2 \$730:1 \$730:3 89.200800
3 \$730:1 \$730:4 16.639700
4 \$730:1 \$730:5 56.873200
5 \$730:1 \$730:6 62.717200
6 \$730:1 \$730:7 61.758200
*END

*D_NET \$731 1.378168
*CAP
1 \$731:1 1.374367
2 \$731:1 u_decoder\/prev_level 0.003801
*RES
1 \$731:1 \$731:2 20.063400
2 \$731:1 \$731:3 19.566700
3 \$731:1 \$731:4 11.298000
4 \$731:1 \$731:5 6.041000
5 \$731:1 \$731:6 11.035300
6 \$731:1 \$731:7 16.587000
*END

*D_NET \$732 0.692337
*CAP
1 \$732:1 0.687710
2 \$732:1 _053_ 0.003801
3 \$732:1 u_decoder\/prev_level 0.000826
*RES
1 \$732:1 \$732:2 0.461700
2 \$732:1 \$732:3 0.394700
3 \$732:1 \$732:4 0.818700
4 \$732:1 \$732:5 0.615900
5 \$732:1 \$732:6 0.356400
*END

*D_NET \$733 1.353551
*CAP
1 \$733:1 1.333708
2 \$733:1 rx_receiving 0.019843
*RES
1 \$733:1 \$733:2 19.055900
2 \$733:1 \$733:3 18.183100
3 \$733:1 \$733:4 31.225900
4 \$733:1 \$733:5 31.119000
5 \$733:1 \$733:6 37.229900
6 \$733:1 \$733:7 38.002800
*END

*D_NET \$736 2.902169
*CAP
1 \$736:1 2.885887
2 \$736:1 _061_ 0.004879
3 \$736:1 _063_ 0.003801
4 \$736:1 _133_ 0.003801
5 \$736:1 clknet_3_5__leaf_clk 0.003801
*RES
1 \$736:1 \$736:2 110.065100
2 \$736:1 \$736:3 20.494200
3 \$736:1 \$736:4 82.156100
4 \$736:1 \$736:5 34.925800
5 \$736:1 \$736:6 48.068200
6 \$736:1 \$736:7 65.091900
7 \$736:1 \$736:8 46.925300
8 \$736:1 \$736:9 65.705800
*END

*D_NET \$737 2.157229
*CAP
1 \$737:1 2.102814
2 \$737:1 _007_ 0.003801
3 \$737:1 _061_ 0.003801
4 \$737:1 _062_ 0.028151
5 \$737:1 _063_ 0.004532
6 \$737:1 _133_ 0.003801
7 \$737:1 stuff_consume 0.003801
8 \$737:1 tx_state[2] 0.006528
*RES
1 \$737:1 \$737:2 23.606500
2 \$737:1 \$737:3 48.046900
3 \$737:1 \$737:4 13.008400
4 \$737:1 \$737:5 63.310200
5 \$737:1 \$737:6 48.146100
6 \$737:1 \$737:7 47.329500
*END

*D_NET \$738 0.852051
*CAP
1 \$738:1 0.836318
2 \$738:1 _007_ 0.000447
3 \$738:1 _061_ 0.005619
4 \$738:1 _063_ 0.005619
5 \$738:1 _133_ 0.004048
*RES
1 \$738:1 \$738:2 27.599400
2 \$738:1 \$738:3 23.748600
3 \$738:1 \$738:4 22.372100
4 \$738:1 \$738:5 12.741300
5 \$738:1 \$738:6 22.897300
6 \$738:1 \$738:7 13.523900
*END

*D_NET \$739 0.849695
*CAP
1 \$739:1 0.815091
2 \$739:1 _133_ 0.005619
3 \$739:1 stuff_consume 0.028985
*RES
1 \$739:1 \$739:2 16.527400
2 \$739:1 \$739:3 15.499600
3 \$739:1 \$739:4 10.523900
4 \$739:1 \$739:5 17.319100
5 \$739:1 \$739:6 10.298700
6 \$739:1 \$739:7 13.857700
*END

*D_NET \$740 0.982287
*CAP
1 \$740:1 0.964374
2 \$740:1 _062_ 0.003801
3 \$740:1 _064_ 0.000136
4 \$740:1 tx_state[4] 0.013976
*RES
1 \$740:1 \$740:2 17.360700
2 \$740:1 \$740:3 17.105400
3 \$740:1 \$740:4 13.771500
4 \$740:1 \$740:5 16.870200
5 \$740:1 \$740:6 8.058000
6 \$740:1 \$740:7 8.212700
*END

*D_NET \$741 1.348889
*CAP
1 \$741:1 1.337651
2 \$741:1 _064_ 0.005619
3 \$741:1 tx_state[4] 0.005619
*RES
1 \$741:1 \$741:2 18.380300
2 \$741:1 \$741:3 30.960700
3 \$741:1 \$741:4 37.678600
4 \$741:1 \$741:5 19.166400
5 \$741:1 \$741:6 31.720400
6 \$741:1 \$741:7 37.481600
*END

*D_NET \$761 1.528440
*CAP
1 \$761:1 1.517037
2 \$761:1 OpMode[0] 0.003801
3 \$761:1 clknet_0_clk 0.003801
4 \$761:1 nrzi_level 0.003801
*RES
1 \$761:1 \$761:2 1.442700
2 \$761:1 \$761:3 1.840700
3 \$761:1 \$761:4 0.845700
4 \$761:1 \$761:5 0.945200
5 \$761:1 \$761:6 0.646700
6 \$761:1 \$761:7 1.144200
*END

*D_NET \$762 0.312302
*CAP
1 \$762:1 0.312302
*RES
1 \$762:1 \$762:2 0.635800
2 \$762:1 \$762:3 0.035300
3 \$762:1 \$762:4 0.671100
*END

*D_NET \$763 0.313765
*CAP
1 \$763:1 0.310790
2 \$763:1 tx_state[4] 0.002975
*RES
1 \$763:1 \$763:2 0.650500
2 \$763:1 \$763:3 0.020600
3 \$763:1 \$763:4 0.671100
*END

*D_NET \$783 3.424659
*CAP
1 \$783:1 3.417706
2 \$783:1 clknet_3_0__leaf_clk 0.006953
*RES
1 \$783:1 \$783:2 145.473400
2 \$783:1 \$783:3 25.585900
3 \$783:1 \$783:4 31.528000
4 \$783:1 \$783:5 126.727000
5 \$783:1 \$783:6 67.830300
6 \$783:1 \$783:7 88.384600
7 \$783:1 \$783:8 64.600500
8 \$783:1 \$783:9 87.164600
*END

*D_NET \$785 0.315136
*CAP
1 \$785:1 0.309372
2 \$785:1 u_destuffer\/_12_ 0.005764
*RES
1 \$785:1 \$785:2 0.635800
2 \$785:1 \$785:3 0.035300
3 \$785:1 \$785:4 0.671100
*END

*D_NET \$786 0.798189
*CAP
1 \$786:1 0.772301
2 \$786:1 _053_ 0.003801
3 \$786:1 dec_data_bit 0.003801
4 \$786:1 u_destuffer\/_09_ 0.014485
5 \$786:1 u_destuffer\/_10_ 0.003801
*RES
1 \$786:1 \$786:2 0.894000
2 \$786:1 \$786:3 0.916700
3 \$786:1 \$786:4 0.199700
4 \$786:1 \$786:5 0.535500
5 \$786:1 \$786:6 0.188300
6 \$786:1 \$786:7 0.546800
*END

*D_NET \$787 1.476556
*CAP
1 \$787:1 1.454298
2 \$787:1 clknet_0_clk 0.007054
3 \$787:1 rx_receiving 0.003801
4 \$787:1 u_destuffer\/_00_ 0.003801
5 \$787:1 u_destuffer\/_06_ 0.003801
6 \$787:1 u_destuffer\/_07_ 0.003801
*RES
1 \$787:1 \$787:2 0.962000
2 \$787:1 \$787:3 0.946500
3 \$787:1 \$787:4 0.238400
4 \$787:1 \$787:5 0.454200
5 \$787:1 \$787:6 0.777200
6 \$787:1 \$787:7 0.623400
7 \$787:1 \$787:8 0.438700
8 \$787:1 \$787:9 0.100100
9 \$787:1 \$787:10 0.269400
10 \$787:1 \$787:11 0.069100
11 \$787:1 \$787:12 0.792700
12 \$787:1 \$787:13 0.608000
*END

*D_NET \$789 2.520380
*CAP
1 \$789:1 2.485200
2 \$789:1 _084_ 0.003801
3 \$789:1 clknet_3_0__leaf_clk 0.003801
4 \$789:1 rx_assembly_en 0.003801
5 \$789:1 rx_bit_valid 0.016175
6 \$789:1 u_destuffer\/_01_ 0.003801
7 \$789:1 u_destuffer\/_03_ 0.003801
*RES
1 \$789:1 \$789:2 13.078200
2 \$789:1 \$789:3 48.907600
3 \$789:1 \$789:4 18.638700
4 \$789:1 \$789:5 62.186300
5 \$789:1 \$789:6 48.835100
6 \$789:1 \$789:7 47.117200
*END

*D_NET \$790 0.252346
*CAP
1 \$790:1 0.252346
*RES
1 \$790:1 \$790:2 0.188500
2 \$790:1 \$790:3 0.186600
3 \$790:1 \$790:4 0.191900
4 \$790:1 \$790:5 0.183600
*END

*D_NET \$791 1.146519
*CAP
1 \$791:1 1.135116
2 \$791:1 _084_ 0.003801
3 \$791:1 rx_assembly_en 0.003801
4 \$791:1 rx_bit_valid 0.003801
*RES
1 \$791:1 \$791:2 23.012200
2 \$791:1 \$791:3 20.560900
3 \$791:1 \$791:4 15.878100
4 \$791:1 \$791:5 9.980400
5 \$791:1 \$791:6 16.463600
6 \$791:1 \$791:7 10.596900
*END

*D_NET \$792 0.314171
*CAP
1 \$792:1 0.310370
2 \$792:1 rx_assembly_en 0.003801
*RES
1 \$792:1 \$792:2 0.671100
2 \$792:1 \$792:3 0.671100
3 \$792:1 \$792:4 0.001000
*END

*D_NET \$793 1.016522
*CAP
1 \$793:1 0.978492
2 \$793:1 _084_ 0.003801
3 \$793:1 clknet_3_0__leaf_clk 0.003801
4 \$793:1 rx_assembly_en 0.003801
5 \$793:1 rx_bit_valid 0.003801
6 \$793:1 u_destuffer\/_03_ 0.022826
*RES
1 \$793:1 \$793:2 17.112100
2 \$793:1 \$793:3 17.002900
3 \$793:1 \$793:4 10.221100
4 \$793:1 \$793:5 8.966800
5 \$793:1 \$793:6 13.642900
6 \$793:1 \$793:7 15.110100
*END

*D_NET \$794 1.181820
*CAP
1 \$794:1 1.174218
2 \$794:1 _053_ 0.003801
3 \$794:1 rx_out_bit 0.003801
*RES
1 \$794:1 \$794:2 18.752200
2 \$794:1 \$794:3 19.223900
3 \$794:1 \$794:4 15.035900
4 \$794:1 \$794:5 9.685900
5 \$794:1 \$794:6 13.864300
6 \$794:1 \$794:7 9.231900
*END

*D_NET \$795 0.235946
*CAP
1 \$795:1 0.212188
2 \$795:1 rx_out_bit 0.023758
*RES
1 \$795:1 \$795:2 0.178700
2 \$795:1 \$795:3 0.181400
3 \$795:1 \$795:4 0.178100
4 \$795:1 \$795:5 0.175600
*END

*D_NET \$796 1.553375
*CAP
1 \$796:1 1.546599
2 \$796:1 _053_ 0.006776
*RES
1 \$796:1 \$796:2 19.438700
2 \$796:1 \$796:3 33.281900
3 \$796:1 \$796:4 35.783200
4 \$796:1 \$796:5 37.455900
5 \$796:1 \$796:6 33.998000
6 \$796:1 \$796:7 17.373600
7 \$796:1 \$796:8 15.586800
*END

*D_NET \$798 1.076981
*CAP
1 \$798:1 1.069346
2 \$798:1 _053_ 0.007635
*RES
1 \$798:1 \$798:2 21.267000
2 \$798:1 \$798:3 13.242300
3 \$798:1 \$798:4 18.132100
4 \$798:1 \$798:5 16.491100
5 \$798:1 \$798:6 12.683900
*END

*D_NET \$800 2.514324
*CAP
1 \$800:1 2.507244
2 \$800:1 clk 0.007080
*RES
1 \$800:1 \$800:2 17.679900
2 \$800:1 \$800:3 17.460200
3 \$800:1 \$800:4 25.357500
4 \$800:1 \$800:5 36.428000
5 \$800:1 \$800:6 36.954100
6 \$800:1 \$800:7 17.460200
7 \$800:1 \$800:8 17.679900
8 \$800:1 \$800:9 25.810100
9 \$800:1 \$800:10 36.428000
10 \$800:1 \$800:11 25.357500
11 \$800:1 \$800:12 25.810100
12 \$800:1 \$800:13 36.954100
*END

*D_NET \$801 2.896031
*CAP
1 \$801:1 2.892230
2 \$801:1 OpMode[0] 0.003801
*RES
1 \$801:1 \$801:2 110.065100
2 \$801:1 \$801:3 20.494200
3 \$801:1 \$801:4 82.156100
4 \$801:1 \$801:5 34.925800
5 \$801:1 \$801:6 48.068200
6 \$801:1 \$801:7 65.091900
7 \$801:1 \$801:8 46.925300
8 \$801:1 \$801:9 65.705800
*END

*D_NET \$802 2.163311
*CAP
1 \$802:1 2.096529
2 \$802:1 OpMode[0] 0.028302
3 \$802:1 line_state[0] 0.006528
4 \$802:1 line_state[1] 0.028151
5 \$802:1 nrzi_level 0.003801
*RES
1 \$802:1 \$802:2 48.046900
2 \$802:1 \$802:3 13.008400
3 \$802:1 \$802:4 63.310200
4 \$802:1 \$802:5 23.606500
5 \$802:1 \$802:6 48.146100
6 \$802:1 \$802:7 47.329500
*END

*D_NET \$804 0.847910
*CAP
1 \$804:1 0.840597
2 \$804:1 _005_ 0.003801
3 \$804:1 nrzi_level 0.003512
*RES
1 \$804:1 \$804:2 27.599400
2 \$804:1 \$804:3 23.748600
3 \$804:1 \$804:4 22.372100
4 \$804:1 \$804:5 12.741300
5 \$804:1 \$804:6 22.897300
6 \$804:1 \$804:7 13.523900
*END

*D_NET \$805 0.835442
*CAP
1 \$805:1 0.829823
2 \$805:1 nrzi_level 0.005619
*RES
1 \$805:1 \$805:2 16.527400
2 \$805:1 \$805:3 15.499600
3 \$805:1 \$805:4 10.523900
4 \$805:1 \$805:5 17.319100
5 \$805:1 \$805:6 10.298700
6 \$805:1 \$805:7 13.857700
*END

*D_NET \$806 0.981259
*CAP
1 \$806:1 0.965435
2 \$806:1 _077_ 0.003801
3 \$806:1 line_state[0] 0.008222
4 \$806:1 line_state[1] 0.003801
*RES
1 \$806:1 \$806:2 17.105400
2 \$806:1 \$806:3 17.360700
3 \$806:1 \$806:4 13.771500
4 \$806:1 \$806:5 16.870200
5 \$806:1 \$806:6 8.058000
6 \$806:1 \$806:7 8.212700
*END

*D_NET \$807 1.346593
*CAP
1 \$807:1 1.340024
2 \$807:1 _077_ 0.005619
3 \$807:1 tx_state[1] 0.000950
*RES
1 \$807:1 \$807:2 19.166400
2 \$807:1 \$807:3 31.720400
3 \$807:1 \$807:4 37.678600
4 \$807:1 \$807:5 18.380300
5 \$807:1 \$807:6 30.960700
6 \$807:1 \$807:7 37.481600
*END

*D_NET \$809 1.080817
*CAP
1 \$809:1 1.057868
2 \$809:1 _012_ 0.011546
3 \$809:1 _055_ 0.003801
4 \$809:1 _056_ 0.003801
5 \$809:1 tx_state[6] 0.003801
*RES
1 \$809:1 \$809:2 14.315200
2 \$809:1 \$809:3 18.099400
3 \$809:1 \$809:4 21.244800
4 \$809:1 \$809:5 12.128100
5 \$809:1 \$809:6 16.029100
*END

*D_NET \$811 2.897900
*CAP
1 \$811:1 2.890298
2 \$811:1 _006_ 0.003801
3 \$811:1 _052_ 0.003801
*RES
1 \$811:1 \$811:2 110.065100
2 \$811:1 \$811:3 20.494200
3 \$811:1 \$811:4 82.156100
4 \$811:1 \$811:5 34.925800
5 \$811:1 \$811:6 48.068200
6 \$811:1 \$811:7 65.091900
7 \$811:1 \$811:8 46.925300
8 \$811:1 \$811:9 65.705800
*END

*D_NET \$812 2.142782
*CAP
1 \$812:1 2.117747
2 \$812:1 _006_ 0.017432
3 \$812:1 _052_ 0.007603
*RES
1 \$812:1 \$812:2 48.046900
2 \$812:1 \$812:3 13.008400
3 \$812:1 \$812:4 63.310200
4 \$812:1 \$812:5 23.606500
5 \$812:1 \$812:6 48.146100
6 \$812:1 \$812:7 47.329500
*END

*D_NET \$813 0.844314
*CAP
1 \$813:1 0.844314
*RES
1 \$813:1 \$813:2 27.599400
2 \$813:1 \$813:3 23.748600
3 \$813:1 \$813:4 22.372100
4 \$813:1 \$813:5 12.741300
5 \$813:1 \$813:6 22.897300
6 \$813:1 \$813:7 13.523900
*END

*D_NET \$814 0.832679
*CAP
1 \$814:1 0.832679
*RES
1 \$814:1 \$814:2 16.527400
2 \$814:1 \$814:3 15.499600
3 \$814:1 \$814:4 10.523900
4 \$814:1 \$814:5 17.319100
5 \$814:1 \$814:6 10.298700
6 \$814:1 \$814:7 13.857700
*END

*D_NET \$815 0.973478
*CAP
1 \$815:1 0.973478
*RES
1 \$815:1 \$815:2 17.105400
2 \$815:1 \$815:3 17.360700
3 \$815:1 \$815:4 13.771500
4 \$815:1 \$815:5 16.870200
5 \$815:1 \$815:6 8.058000
6 \$815:1 \$815:7 8.212700
*END

*D_NET \$816 1.345232
*CAP
1 \$816:1 1.341431
2 \$816:1 tx_state[2] 0.003801
*RES
1 \$816:1 \$816:2 19.166400
2 \$816:1 \$816:3 31.720400
3 \$816:1 \$816:4 37.678600
4 \$816:1 \$816:5 18.380300
5 \$816:1 \$816:6 30.960700
6 \$816:1 \$816:7 37.481600
*END

*D_NET \$84 0.315687
*CAP
1 \$84:1 0.308804
2 \$84:1 u_eop_detector\/_14_ 0.006883
*RES
1 \$84:1 \$84:2 0.650500
2 \$84:1 \$84:3 0.671100
3 \$84:1 \$84:4 0.020600
*END

*D_NET \$857 3.421240
*CAP
1 \$857:1 3.421240
*RES
1 \$857:1 \$857:2 25.585900
2 \$857:1 \$857:3 145.473400
3 \$857:1 \$857:4 31.528000
4 \$857:1 \$857:5 126.727000
5 \$857:1 \$857:6 67.830300
6 \$857:1 \$857:7 88.384600
7 \$857:1 \$857:8 64.600500
8 \$857:1 \$857:9 87.164600
*END

*D_NET \$858 0.252346
*CAP
1 \$858:1 0.252346
*RES
1 \$858:1 \$858:2 0.188500
2 \$858:1 \$858:3 0.186600
3 \$858:1 \$858:4 0.191900
4 \$858:1 \$858:5 0.183600
*END

*D_NET \$859 1.148484
*CAP
1 \$859:1 1.133087
2 \$859:1 u_destuffer\/_02_ 0.015397
*RES
1 \$859:1 \$859:2 23.012200
2 \$859:1 \$859:3 20.560900
3 \$859:1 \$859:4 15.878100
4 \$859:1 \$859:5 9.980400
5 \$859:1 \$859:6 16.463600
6 \$859:1 \$859:7 10.596900
*END

*D_NET \$860 2.503080
*CAP
1 \$860:1 2.503080
*RES
1 \$860:1 \$860:2 13.078200
2 \$860:1 \$860:3 48.907600
3 \$860:1 \$860:4 18.638700
4 \$860:1 \$860:5 62.186300
5 \$860:1 \$860:6 48.835100
6 \$860:1 \$860:7 47.117200
*END

*D_NET \$861 0.997821
*CAP
1 \$861:1 0.997821
*RES
1 \$861:1 \$861:2 17.112100
2 \$861:1 \$861:3 17.002900
3 \$861:1 \$861:4 10.221100
4 \$861:1 \$861:5 8.966800
5 \$861:1 \$861:6 13.642900
6 \$861:1 \$861:7 15.110100
*END

*D_NET \$862 1.179951
*CAP
1 \$862:1 1.176150
2 \$862:1 _053_ 0.003801
*RES
1 \$862:1 \$862:2 19.223900
2 \$862:1 \$862:3 18.752200
3 \$862:1 \$862:4 15.035900
4 \$862:1 \$862:5 9.685900
5 \$862:1 \$862:6 13.864300
6 \$862:1 \$862:7 9.231900
*END

*D_NET \$863 0.224263
*CAP
1 \$863:1 0.224263
*RES
1 \$863:1 \$863:2 0.178700
2 \$863:1 \$863:3 0.181400
3 \$863:1 \$863:4 0.178100
4 \$863:1 \$863:5 0.175600
*END

*D_NET \$864 1.566850
*CAP
1 \$864:1 1.532673
2 \$864:1 _053_ 0.006776
3 \$864:1 u_destuffer\/ones_run[1] 0.015858
4 \$864:1 u_destuffer\/ones_run[2] 0.011543
*RES
1 \$864:1 \$864:2 33.281900
2 \$864:1 \$864:3 19.438700
3 \$864:1 \$864:4 35.783200
4 \$864:1 \$864:5 37.455900
5 \$864:1 \$864:6 33.998000
6 \$864:1 \$864:7 17.373600
7 \$864:1 \$864:8 15.586800
*END

*D_NET \$865 1.861149
*CAP
1 \$865:1 1.825214
2 \$865:1 _053_ 0.014214
3 \$865:1 dec_data_bit 0.003801
4 \$865:1 rx_receiving 0.014119
5 \$865:1 u_destuffer\/_06_ 0.003801
*RES
1 \$865:1 \$865:2 13.204000
2 \$865:1 \$865:3 21.238700
3 \$865:1 \$865:4 23.954400
4 \$865:1 \$865:5 25.462200
5 \$865:1 \$865:6 18.989400
6 \$865:1 \$865:7 26.952600
7 \$865:1 \$865:8 15.977400
8 \$865:1 \$865:9 11.142000
*END

*D_NET \$866 3.425669
*CAP
1 \$866:1 3.416662
2 \$866:1 clknet_3_0__leaf_clk 0.005206
3 \$866:1 rx_assembly_en 0.003801
*RES
1 \$866:1 \$866:2 25.585900
2 \$866:1 \$866:3 145.473400
3 \$866:1 \$866:4 126.727000
4 \$866:1 \$866:5 31.528000
5 \$866:1 \$866:6 67.830300
6 \$866:1 \$866:7 88.384600
7 \$866:1 \$866:8 64.600500
8 \$866:1 \$866:9 87.164600
*END

*D_NET \$867 0.252346
*CAP
1 \$867:1 0.252346
*RES
1 \$867:1 \$867:2 0.188500
2 \$867:1 \$867:3 0.186600
3 \$867:1 \$867:4 0.191900
4 \$867:1 \$867:5 0.183600
*END

*D_NET \$868 1.149978
*CAP
1 \$868:1 1.131543
2 \$868:1 rx_out_bit 0.014634
3 \$868:1 rx_stuff_err 0.003801
*RES
1 \$868:1 \$868:2 23.012200
2 \$868:1 \$868:3 20.560900
3 \$868:1 \$868:4 15.878100
4 \$868:1 \$868:5 9.980400
5 \$868:1 \$868:6 16.463600
6 \$868:1 \$868:7 10.596900
*END

*D_NET \$869 2.523938
*CAP
1 \$869:1 2.481523
2 \$869:1 _053_ 0.003801
3 \$869:1 _084_ 0.010492
4 \$869:1 rx_bit_valid 0.011947
5 \$869:1 rx_stuff_err 0.016175
*RES
1 \$869:1 \$869:2 13.078200
2 \$869:1 \$869:3 48.907600
3 \$869:1 \$869:4 62.186300
4 \$869:1 \$869:5 18.638700
5 \$869:1 \$869:6 48.835100
6 \$869:1 \$869:7 47.117200
*END

*D_NET \$870 1.001559
*CAP
1 \$870:1 0.993957
2 \$870:1 _053_ 0.003801
3 \$870:1 rx_stuff_err 0.003801
*RES
1 \$870:1 \$870:2 17.112100
2 \$870:1 \$870:3 17.002900
3 \$870:1 \$870:4 10.221100
4 \$870:1 \$870:5 8.966800
5 \$870:1 \$870:6 13.642900
6 \$870:1 \$870:7 15.110100
*END

*D_NET \$871 1.178082
*CAP
1 \$871:1 1.178082
*RES
1 \$871:1 \$871:2 19.223900
2 \$871:1 \$871:3 18.752200
3 \$871:1 \$871:4 15.035900
4 \$871:1 \$871:5 9.685900
5 \$871:1 \$871:6 13.864300
6 \$871:1 \$871:7 9.231900
*END

*D_NET \$872 0.224263
*CAP
1 \$872:1 0.224263
*RES
1 \$872:1 \$872:2 0.178700
2 \$872:1 \$872:3 0.181400
3 \$872:1 \$872:4 0.178100
4 \$872:1 \$872:5 0.175600
*END

*D_NET \$873 1.551587
*CAP
1 \$873:1 1.548447
2 \$873:1 _053_ 0.003140
*RES
1 \$873:1 \$873:2 33.281900
2 \$873:1 \$873:3 19.438700
3 \$873:1 \$873:4 35.783200
4 \$873:1 \$873:5 37.455900
5 \$873:1 \$873:6 33.998000
6 \$873:1 \$873:7 17.373600
7 \$873:1 \$873:8 15.586800
*END

*D_NET \$874 1.075525
*CAP
1 \$874:1 1.070850
2 \$874:1 rx_receiving 0.000841
3 \$874:1 tx_state[5] 0.003834
*RES
1 \$874:1 \$874:2 13.242300
2 \$874:1 \$874:3 21.267000
3 \$874:1 \$874:4 18.132100
4 \$874:1 \$874:5 12.683900
5 \$874:1 \$874:6 16.491100
*END

*D_NET \$877 0.303089
*CAP
1 \$877:1 0.292175
2 \$877:1 _057_ 0.001266
3 \$877:1 stuff_consume 0.003801
4 \$877:1 stuff_pending_after 0.005847
*RES
1 \$877:1 \$877:2 0.478400
2 \$877:1 \$877:3 0.159500
3 \$877:1 \$877:4 0.478400
4 \$877:1 \$877:5 0.159500
*END

*D_NET \$878 1.198442
*CAP
1 \$878:1 1.171835
2 \$878:1 _061_ 0.003801
3 \$878:1 _062_ 0.003801
4 \$878:1 _063_ 0.003801
5 \$878:1 _133_ 0.003801
6 \$878:1 stuff_consume 0.003801
7 \$878:1 tx_state[2] 0.003801
8 \$878:1 tx_state[4] 0.003801
*RES
1 \$878:1 \$878:2 2.322100
2 \$878:1 \$878:3 1.256900
3 \$878:1 \$878:4 0.074500
4 \$878:1 \$878:5 0.340800
5 \$878:1 \$878:6 0.468600
6 \$878:1 \$878:7 0.862800
*END

*D_NET \$879 0.438987
*CAP
1 \$879:1 0.423783
2 \$879:1 _061_ 0.003801
3 \$879:1 _063_ 0.003801
4 \$879:1 stuff_consume 0.003801
5 \$879:1 tx_state[2] 0.003801
*RES
1 \$879:1 \$879:2 0.527000
2 \$879:1 \$879:3 0.312500
3 \$879:1 \$879:4 0.103500
4 \$879:1 \$879:5 0.314400
5 \$879:1 \$879:6 0.523300
6 \$879:1 \$879:7 0.105400
*END

*D_NET \$881 1.132644
*CAP
1 \$881:1 1.128669
2 \$881:1 TxValid 0.003975
*RES
1 \$881:1 \$881:2 17.797300
2 \$881:1 \$881:3 15.959000
3 \$881:1 \$881:4 10.608600
4 \$881:1 \$881:5 14.705300
5 \$881:1 \$881:6 9.230600
6 \$881:1 \$881:7 13.807700
*END

*D_NET \$882 1.217707
*CAP
1 \$882:1 1.209698
2 \$882:1 TxValid 0.000407
3 \$882:1 _075_ 0.003801
4 \$882:1 tx_state[4] 0.003801
*RES
1 \$882:1 \$882:2 22.143400
2 \$882:1 \$882:3 25.661100
3 \$882:1 \$882:4 31.800600
4 \$882:1 \$882:5 27.185500
*END

*D_NET \$89 1.103225
*CAP
1 \$89:1 1.094876
2 \$89:1 u_eop_detector\/_15_ 0.008349
*RES
1 \$89:1 \$89:2 21.320900
2 \$89:1 \$89:3 15.496500
3 \$89:1 \$89:4 18.137300
4 \$89:1 \$89:5 11.125600
5 \$89:1 \$89:6 15.871400
*END

*D_NET \$902 0.312302
*CAP
1 \$902:1 0.312302
*RES
1 \$902:1 \$902:2 0.671100
2 \$902:1 \$902:3 0.671100
3 \$902:1 \$902:4 0.001000
*END

*D_NET \$903 0.317251
*CAP
1 \$903:1 0.307187
2 \$903:1 rx_out_bit 0.010064
*RES
1 \$903:1 \$903:2 0.671100
2 \$903:1 \$903:3 0.671100
3 \$903:1 \$903:4 0.001000
*END

*D_NET \$904 0.312302
*CAP
1 \$904:1 0.312302
*RES
1 \$904:1 \$904:2 0.650500
2 \$904:1 \$904:3 0.020600
3 \$904:1 \$904:4 0.671100
*END

*D_NET \$905 0.319509
*CAP
1 \$905:1 0.304853
2 \$905:1 _141_ 0.003801
3 \$905:1 byte_idx[0] 0.007054
4 \$905:1 byte_idx[1] 0.003801
*RES
1 \$905:1 \$905:2 0.635800
2 \$905:1 \$905:3 0.035300
3 \$905:1 \$905:4 0.671100
*END

*D_NET \$91 0.316966
*CAP
1 \$91:1 0.307481
2 \$91:1 u_eop_detector\/_15_ 0.005684
3 \$91:1 u_eop_detector\/_25_ 0.003801
*RES
1 \$91:1 \$91:2 0.635800
2 \$91:1 \$91:3 0.035300
3 \$91:1 \$91:4 0.671100
*END

*D_NET \$918 3.427424
*CAP
1 \$918:1 3.414850
2 \$918:1 clknet_3_2__leaf_clk 0.012574
*RES
1 \$918:1 \$918:2 145.473400
2 \$918:1 \$918:3 25.585900
3 \$918:1 \$918:4 31.528000
4 \$918:1 \$918:5 126.727000
5 \$918:1 \$918:6 67.830300
6 \$918:1 \$918:7 88.384600
7 \$918:1 \$918:8 64.600500
8 \$918:1 \$918:9 87.164600
*END

*D_NET \$919 1.551912
*CAP
1 \$919:1 1.548111
2 \$919:1 _053_ 0.003801
*RES
1 \$919:1 \$919:2 19.438700
2 \$919:1 \$919:3 33.281900
3 \$919:1 \$919:4 35.783200
4 \$919:1 \$919:5 37.455900
5 \$919:1 \$919:6 33.998000
6 \$919:1 \$919:7 17.373600
7 \$919:1 \$919:8 15.586800
*END

*D_NET \$922 3.425490
*CAP
1 \$922:1 3.416848
2 \$922:1 clknet_3_2__leaf_clk 0.008642
*RES
1 \$922:1 \$922:2 145.473400
2 \$922:1 \$922:3 25.585900
3 \$922:1 \$922:4 31.528000
4 \$922:1 \$922:5 126.727000
5 \$922:1 \$922:6 67.830300
6 \$922:1 \$922:7 88.384600
7 \$922:1 \$922:8 64.600500
8 \$922:1 \$922:9 87.164600
*END

*D_NET \$923 1.561173
*CAP
1 \$923:1 1.538539
2 \$923:1 _053_ 0.006776
3 \$923:1 rx_assembly_en 0.015858
*RES
1 \$923:1 \$923:2 19.438700
2 \$923:1 \$923:3 33.281900
3 \$923:1 \$923:4 35.783200
4 \$923:1 \$923:5 37.455900
5 \$923:1 \$923:6 33.998000
6 \$923:1 \$923:7 17.373600
7 \$923:1 \$923:8 15.586800
*END

*D_NET \$924 2.896031
*CAP
1 \$924:1 2.892230
2 \$924:1 rx_out_bit 0.003801
*RES
1 \$924:1 \$924:2 110.065100
2 \$924:1 \$924:3 20.494200
3 \$924:1 \$924:4 82.156100
4 \$924:1 \$924:5 34.925800
5 \$924:1 \$924:6 48.068200
6 \$924:1 \$924:7 65.091900
7 \$924:1 \$924:8 46.925300
8 \$924:1 \$924:9 65.705800
*END

*D_NET \$925 2.901035
*CAP
1 \$925:1 2.887060
2 \$925:1 _001_ 0.003801
3 \$925:1 rx_receiving 0.004879
4 \$925:1 rx_shift[6] 0.005295
*RES
1 \$925:1 \$925:2 110.065100
2 \$925:1 \$925:3 20.494200
3 \$925:1 \$925:4 82.156100
4 \$925:1 \$925:5 34.925800
5 \$925:1 \$925:6 48.068200
6 \$925:1 \$925:7 65.091900
7 \$925:1 \$925:8 46.925300
8 \$925:1 \$925:9 65.705800
*END

*D_NET \$926 1.080720
*CAP
1 \$926:1 1.065482
2 \$926:1 _053_ 0.007603
3 \$926:1 clknet_3_6__leaf_clk 0.007635
*RES
1 \$926:1 \$926:2 21.267000
2 \$926:1 \$926:3 13.242300
3 \$926:1 \$926:4 18.132100
4 \$926:1 \$926:5 16.491100
5 \$926:1 \$926:6 12.683900
*END

*D_NET \$930 2.904038
*CAP
1 \$930:1 2.883955
2 \$930:1 _048_ 0.003801
3 \$930:1 _052_ 0.003801
4 \$930:1 _144_ 0.003801
5 \$930:1 byte_idx[1] 0.004879
6 \$930:1 clknet_3_7__leaf_clk 0.003801
*RES
1 \$930:1 \$930:2 110.065100
2 \$930:1 \$930:3 20.494200
3 \$930:1 \$930:4 82.156100
4 \$930:1 \$930:5 34.925800
5 \$930:1 \$930:6 48.068200
6 \$930:1 \$930:7 65.091900
7 \$930:1 \$930:8 46.925300
8 \$930:1 \$930:9 65.705800
*END

*D_NET \$931 2.503080
*CAP
1 \$931:1 2.503080
*RES
1 \$931:1 \$931:2 13.078200
2 \$931:1 \$931:3 48.907600
3 \$931:1 \$931:4 18.638700
4 \$931:1 \$931:5 62.186300
5 \$931:1 \$931:6 48.835100
6 \$931:1 \$931:7 47.117200
*END

*D_NET \$932 0.254866
*CAP
1 \$932:1 0.249742
2 \$932:1 u_destuffer\/_02_ 0.005124
*RES
1 \$932:1 \$932:2 0.188500
2 \$932:1 \$932:3 0.186600
3 \$932:1 \$932:4 0.191900
4 \$932:1 \$932:5 0.183600
*END

*D_NET \$933 1.151765
*CAP
1 \$933:1 1.129696
2 \$933:1 u_destuffer\/_02_ 0.022069
*RES
1 \$933:1 \$933:2 23.012200
2 \$933:1 \$933:3 20.560900
3 \$933:1 \$933:4 15.878100
4 \$933:1 \$933:5 9.980400
5 \$933:1 \$933:6 16.463600
6 \$933:1 \$933:7 10.596900
*END

*D_NET \$934 0.314171
*CAP
1 \$934:1 0.310370
2 \$934:1 u_destuffer\/_02_ 0.003801
*RES
1 \$934:1 \$934:2 0.671100
2 \$934:1 \$934:3 0.671100
3 \$934:1 \$934:4 0.001000
*END

*D_NET \$935 0.997821
*CAP
1 \$935:1 0.997821
*RES
1 \$935:1 \$935:2 17.112100
2 \$935:1 \$935:3 17.002900
3 \$935:1 \$935:4 10.221100
4 \$935:1 \$935:5 8.966800
5 \$935:1 \$935:6 13.642900
6 \$935:1 \$935:7 15.110100
*END

*D_NET \$936 1.185781
*CAP
1 \$936:1 1.170124
2 \$936:1 _053_ 0.015657
*RES
1 \$936:1 \$936:2 18.752200
2 \$936:1 \$936:3 19.223900
3 \$936:1 \$936:4 15.035900
4 \$936:1 \$936:5 9.685900
5 \$936:1 \$936:6 13.864300
6 \$936:1 \$936:7 9.231900
*END

*D_NET \$937 0.224263
*CAP
1 \$937:1 0.224263
*RES
1 \$937:1 \$937:2 0.178700
2 \$937:1 \$937:3 0.181400
3 \$937:1 \$937:4 0.178100
4 \$937:1 \$937:5 0.175600
*END

*D_NET \$938 2.504949
*CAP
1 \$938:1 2.501148
2 \$938:1 u_destuffer\/_00_ 0.003801
*RES
1 \$938:1 \$938:2 13.078200
2 \$938:1 \$938:3 48.907600
3 \$938:1 \$938:4 18.638700
4 \$938:1 \$938:5 62.186300
5 \$938:1 \$938:6 48.835100
6 \$938:1 \$938:7 47.117200
*END

*D_NET \$939 0.252346
*CAP
1 \$939:1 0.252346
*RES
1 \$939:1 \$939:2 0.188500
2 \$939:1 \$939:3 0.186600
3 \$939:1 \$939:4 0.191900
4 \$939:1 \$939:5 0.183600
*END

*D_NET \$940 1.140912
*CAP
1 \$940:1 1.140912
*RES
1 \$940:1 \$940:2 23.012200
2 \$940:1 \$940:3 20.560900
3 \$940:1 \$940:4 15.878100
4 \$940:1 \$940:5 9.980400
5 \$940:1 \$940:6 16.463600
6 \$940:1 \$940:7 10.596900
*END

*D_NET \$941 0.312302
*CAP
1 \$941:1 0.312302
*RES
1 \$941:1 \$941:2 0.671100
2 \$941:1 \$941:3 0.671100
3 \$941:1 \$941:4 0.001000
*END

*D_NET \$942 0.997821
*CAP
1 \$942:1 0.997821
*RES
1 \$942:1 \$942:2 17.112100
2 \$942:1 \$942:3 17.002900
3 \$942:1 \$942:4 10.221100
4 \$942:1 \$942:5 8.966800
5 \$942:1 \$942:6 13.642900
6 \$942:1 \$942:7 15.110100
*END

*D_NET \$943 1.179951
*CAP
1 \$943:1 1.176150
2 \$943:1 _053_ 0.003801
*RES
1 \$943:1 \$943:2 18.752200
2 \$943:1 \$943:3 19.223900
3 \$943:1 \$943:4 15.035900
4 \$943:1 \$943:5 9.685900
5 \$943:1 \$943:6 13.864300
6 \$943:1 \$943:7 9.231900
*END

*D_NET \$944 0.224263
*CAP
1 \$944:1 0.224263
*RES
1 \$944:1 \$944:2 0.178700
2 \$944:1 \$944:3 0.181400
3 \$944:1 \$944:4 0.178100
4 \$944:1 \$944:5 0.175600
*END

*D_NET \$946 2.137940
*CAP
1 \$946:1 2.122751
2 \$946:1 _050_ 0.006856
3 \$946:1 rx_out_bit 0.004532
4 \$946:1 rx_stuff_err 0.003801
*RES
1 \$946:1 \$946:2 48.046900
2 \$946:1 \$946:3 13.008400
3 \$946:1 \$946:4 63.310200
4 \$946:1 \$946:5 23.606500
5 \$946:1 \$946:6 48.146100
6 \$946:1 \$946:7 47.329500
*END

*D_NET \$947 0.849840
*CAP
1 \$947:1 0.838602
2 \$947:1 rx_out_bit 0.005619
3 \$947:1 rx_stuff_err 0.005619
*RES
1 \$947:1 \$947:2 27.599400
2 \$947:1 \$947:3 23.748600
3 \$947:1 \$947:4 22.372100
4 \$947:1 \$947:5 12.741300
5 \$947:1 \$947:6 22.897300
6 \$947:1 \$947:7 13.523900
*END

*D_NET \$948 0.834406
*CAP
1 \$948:1 0.830894
2 \$948:1 rx_stuff_err 0.003512
*RES
1 \$948:1 \$948:2 16.527400
2 \$948:1 \$948:3 15.499600
3 \$948:1 \$948:4 10.523900
4 \$948:1 \$948:5 17.319100
5 \$948:1 \$948:6 10.298700
6 \$948:1 \$948:7 13.857700
*END

*D_NET \$949 0.973478
*CAP
1 \$949:1 0.973478
*RES
1 \$949:1 \$949:2 17.105400
2 \$949:1 \$949:3 17.360700
3 \$949:1 \$949:4 13.771500
4 \$949:1 \$949:5 16.870200
5 \$949:1 \$949:6 8.058000
6 \$949:1 \$949:7 8.212700
*END

*D_NET \$950 1.347101
*CAP
1 \$950:1 1.339499
2 \$950:1 clknet_3_3__leaf_clk 0.003801
3 \$950:1 rx_out_bit 0.003801
*RES
1 \$950:1 \$950:2 19.166400
2 \$950:1 \$950:3 31.720400
3 \$950:1 \$950:4 37.678600
4 \$950:1 \$950:5 18.380300
5 \$950:1 \$950:6 30.960700
6 \$950:1 \$950:7 37.481600
*END

*D_NET \$952 2.147964
*CAP
1 \$952:1 2.112391
2 \$952:1 _001_ 0.027971
3 \$952:1 rx_receiving 0.003801
4 \$952:1 tx_state[5] 0.003801
*RES
1 \$952:1 \$952:2 48.046900
2 \$952:1 \$952:3 13.008400
3 \$952:1 \$952:4 63.310200
4 \$952:1 \$952:5 23.606500
5 \$952:1 \$952:6 48.146100
6 \$952:1 \$952:7 47.329500
*END

*D_NET \$954 0.851709
*CAP
1 \$954:1 0.836670
2 \$954:1 _000_ 0.003801
3 \$954:1 rx_receiving 0.005619
4 \$954:1 tx_state[5] 0.005619
*RES
1 \$954:1 \$954:2 27.599400
2 \$954:1 \$954:3 23.748600
3 \$954:1 \$954:4 22.372100
4 \$954:1 \$954:5 12.741300
5 \$954:1 \$954:6 22.897300
6 \$954:1 \$954:7 13.523900
*END

*D_NET \$955 0.847237
*CAP
1 \$955:1 0.817632
2 \$955:1 _000_ 0.026093
3 \$955:1 tx_state[5] 0.003512
*RES
1 \$955:1 \$955:2 16.527400
2 \$955:1 \$955:3 15.499600
3 \$955:1 \$955:4 10.523900
4 \$955:1 \$955:5 17.319100
5 \$955:1 \$955:6 10.298700
6 \$955:1 \$955:7 13.857700
*END

*D_NET \$956 0.975347
*CAP
1 \$956:1 0.971546
2 \$956:1 clk 0.003801
*RES
1 \$956:1 \$956:2 17.105400
2 \$956:1 \$956:3 17.360700
3 \$956:1 \$956:4 13.771500
4 \$956:1 \$956:5 16.870200
5 \$956:1 \$956:6 8.058000
6 \$956:1 \$956:7 8.212700
*END

*D_NET \$957 1.348735
*CAP
1 \$957:1 1.337810
2 \$957:1 clk 0.001505
3 \$957:1 clknet_0_clk 0.003801
4 \$957:1 tx_state[3] 0.005619
*RES
1 \$957:1 \$957:2 19.166400
2 \$957:1 \$957:3 31.720400
3 \$957:1 \$957:4 37.678600
4 \$957:1 \$957:5 18.380300
5 \$957:1 \$957:6 30.960700
6 \$957:1 \$957:7 37.481600
*END

*D_NET \$960 2.149625
*CAP
1 \$960:1 2.110674
2 \$960:1 _052_ 0.007603
3 \$960:1 _140_ 0.004678
4 \$960:1 _141_ 0.003801
5 \$960:1 _144_ 0.008739
6 \$960:1 byte_idx[0] 0.003801
7 \$960:1 byte_idx[1] 0.003801
8 \$960:1 tx_state[2] 0.006528
*RES
1 \$960:1 \$960:2 48.046900
2 \$960:1 \$960:3 13.008400
3 \$960:1 \$960:4 63.310200
4 \$960:1 \$960:5 23.606500
5 \$960:1 \$960:6 48.146100
6 \$960:1 \$960:7 47.329500
*END

*D_NET \$961 0.852603
*CAP
1 \$961:1 0.835746
2 \$961:1 _141_ 0.005619
3 \$961:1 byte_idx[0] 0.005619
4 \$961:1 byte_idx[1] 0.005619
*RES
1 \$961:1 \$961:2 27.599400
2 \$961:1 \$961:3 23.748600
3 \$961:1 \$961:4 22.372100
4 \$961:1 \$961:5 12.741300
5 \$961:1 \$961:6 22.897300
6 \$961:1 \$961:7 13.523900
*END

*D_NET \$962 0.837514
*CAP
1 \$962:1 0.827681
2 \$962:1 _140_ 0.000702
3 \$962:1 _141_ 0.003512
4 \$962:1 byte_idx[0] 0.005619
*RES
1 \$962:1 \$962:2 16.527400
2 \$962:1 \$962:3 15.499600
3 \$962:1 \$962:4 10.523900
4 \$962:1 \$962:5 17.319100
5 \$962:1 \$962:6 10.298700
6 \$962:1 \$962:7 13.857700
*END

*D_NET \$963 0.973478
*CAP
1 \$963:1 0.973478
*RES
1 \$963:1 \$963:2 17.105400
2 \$963:1 \$963:3 17.360700
3 \$963:1 \$963:4 13.771500
4 \$963:1 \$963:5 16.870200
5 \$963:1 \$963:6 8.058000
6 \$963:1 \$963:7 8.212700
*END

*D_NET \$964 1.343363
*CAP
1 \$964:1 1.343363
*RES
1 \$964:1 \$964:2 19.166400
2 \$964:1 \$964:3 31.720400
3 \$964:1 \$964:4 37.678600
4 \$964:1 \$964:5 18.380300
5 \$964:1 \$964:6 30.960700
6 \$964:1 \$964:7 37.481600
*END

*D_NET \$985 0.363050
*CAP
1 \$985:1 0.352283
2 \$985:1 _053_ 0.003165
3 \$985:1 _095_ 0.003801
4 \$985:1 rx_bitcnt[2] 0.003801
*RES
1 \$985:1 \$985:2 0.768000
2 \$985:1 \$985:3 0.774800
3 \$985:1 \$985:4 0.006800
*END

*D_NET \$986 0.364553
*CAP
1 \$986:1 0.350731
2 \$986:1 TxReady 0.003801
3 \$986:1 _055_ 0.006220
4 \$986:1 _072_ 0.003801
*RES
1 \$986:1 \$986:2 0.774800
2 \$986:1 \$986:3 0.001000
3 \$986:1 \$986:4 0.774800
*END

*D_NET \$987 0.362371
*CAP
1 \$987:1 0.352986
2 \$987:1 _074_ 0.006220
3 \$987:1 tx_state[2] 0.003165
*RES
1 \$987:1 \$987:2 0.774800
2 \$987:1 \$987:3 0.001000
3 \$987:1 \$987:4 0.774800
*END

*D_NET \$99 0.300449
*CAP
1 \$99:1 0.296648
2 \$99:1 u_eop_detector\/_09_ 0.003801
*RES
1 \$99:1 \$99:2 0.639800
2 \$99:1 \$99:3 0.001000
3 \$99:1 \$99:4 0.639800
*END

*D_NET DataIn\[0\] 5.788555
*CONN
*P DataIn\[0\] B
*I _321_:Q B
*I _288_:I0 B
*CAP
1 DataIn[0] 5.571383
2 DataIn[0] DataIn[2] 0.009255
3 DataIn[0] DataIn[3] 0.009255
4 DataIn[0] VDD 0.123626
5 DataIn[0] VSS 0.014875
6 DataIn[0] _037_ 0.004628
7 DataIn[0] _039_ 0.018511
8 DataIn[0] _042_ 0.004628
9 DataIn[0] _096_ 0.009255
10 DataIn[0] clknet_3_2__leaf_clk 0.013883
11 DataIn[0] clknet_3_3__leaf_clk 0.004628
12 DataIn[0] rx_shift[4] 0.004628
*RES
1 DataIn[0] DataIn\[0\]:2 13.450800
2 DataIn[0] DataIn\[0\]:3 38.525500
3 DataIn[0] DataIn\[0\]:4 13.450800
4 DataIn[0] DataIn\[0\]:5 38.525500
5 DataIn[0] _321_:Q 0.000000
6 DataIn[0] _288_:I0 0.000000
*END

*D_NET DataIn\[1\] 6.614787
*CONN
*P DataIn\[1\] B
*I _322_:Q B
*I _287_:I0 B
*CAP
1 DataIn[1] 6.223740
2 DataIn[1] DataIn[2] 0.004628
3 DataIn[1] DataIn[5] 0.013883
4 DataIn[1] DataIn[6] 0.004628
5 DataIn[1] DataIn[7] 0.004628
6 DataIn[1] DataOut[1] 0.004628
7 DataIn[1] DataOut[3] 0.004628
8 DataIn[1] DataOut[4] 0.004628
9 DataIn[1] DataOut[6] 0.004628
10 DataIn[1] DataOut[7] 0.004628
11 DataIn[1] OpMode[0] 0.004628
12 DataIn[1] RxError 0.004628
13 DataIn[1] TxValid 0.004628
14 DataIn[1] VDD 0.177837
15 DataIn[1] VSS 0.088918
16 DataIn[1] _096_ 0.022477
17 DataIn[1] clk 0.004628
18 DataIn[1] clknet_3_2__leaf_clk 0.004628
19 DataIn[1] clknet_3_3__leaf_clk 0.004628
20 DataIn[1] rx_receiving 0.004628
21 DataIn[1] rx_shift[3] 0.004628
22 DataIn[1] rx_shift[4] 0.004628
23 DataIn[1] rx_shift[5] 0.004628
24 DataIn[1] txdp 0.004628
*RES
1 DataIn[1] DataIn\[1\]:2 32.804700
2 DataIn[1] DataIn\[1\]:3 20.928900
3 DataIn[1] DataIn\[1\]:4 32.804700
4 DataIn[1] DataIn\[1\]:5 20.928900
5 DataIn[1] _322_:Q 0.000000
6 DataIn[1] _287_:I0 0.000000
*END

*D_NET DataIn\[2\] 5.226241
*CONN
*P DataIn\[2\] B
*I _323_:Q B
*I _286_:I0 B
*CAP
1 DataIn[2] 5.048400
2 DataIn[2] DataIn[3] 0.004628
3 DataIn[2] DataIn[4] 0.004628
4 DataIn[2] DataIn[6] 0.004628
5 DataIn[2] DataIn[7] 0.004628
6 DataIn[2] DataOut[1] 0.004628
7 DataIn[2] DataOut[3] 0.004628
8 DataIn[2] DataOut[4] 0.004628
9 DataIn[2] DataOut[6] 0.004628
10 DataIn[2] DataOut[7] 0.004628
11 DataIn[2] OpMode[0] 0.004628
12 DataIn[2] RxError 0.004628
13 DataIn[2] TxValid 0.004628
14 DataIn[2] VDD 0.088918
15 DataIn[2] VSS 0.014875
16 DataIn[2] clk 0.004628
17 DataIn[2] clknet_3_2__leaf_clk 0.004628
18 DataIn[2] rx_receiving 0.004628
19 DataIn[2] txdp 0.004628
*RES
1 DataIn[2] DataIn\[2\]:2 18.838700
2 DataIn[2] DataIn\[2\]:3 31.926700
3 DataIn[2] DataIn\[2\]:4 18.838700
4 DataIn[2] DataIn\[2\]:5 31.926700
5 DataIn[2] _323_:Q 0.000000
6 DataIn[2] _286_:I0 0.000000
*END

*D_NET DataIn\[3\] 4.251325
*CONN
*P DataIn\[3\] B
*I _324_:Q B
*I _277_:I0 B
*CAP
1 DataIn[3] 4.073484
2 DataIn[3] DataIn[4] 0.004628
3 DataIn[3] DataIn[6] 0.004628
4 DataIn[3] DataIn[7] 0.004628
5 DataIn[3] DataOut[1] 0.004628
6 DataIn[3] DataOut[3] 0.004628
7 DataIn[3] DataOut[4] 0.004628
8 DataIn[3] DataOut[6] 0.004628
9 DataIn[3] DataOut[7] 0.004628
10 DataIn[3] OpMode[0] 0.004628
11 DataIn[3] RxError 0.004628
12 DataIn[3] TxValid 0.004628
13 DataIn[3] VDD 0.088918
14 DataIn[3] VSS 0.014875
15 DataIn[3] _096_ 0.004628
16 DataIn[3] clk 0.004628
17 DataIn[3] clknet_3_3__leaf_clk 0.004628
18 DataIn[3] rx_receiving 0.004628
19 DataIn[3] txdp 0.004628
*RES
1 DataIn[3] DataIn\[3\]:2 19.182500
2 DataIn[3] DataIn\[3\]:3 29.071400
3 DataIn[3] DataIn\[3\]:4 19.182500
4 DataIn[3] DataIn\[3\]:5 29.071400
5 DataIn[3] _324_:Q 0.000000
6 DataIn[3] _277_:I0 0.000000
*END

*D_NET DataIn\[4\] 2.240853
*CONN
*P DataIn\[4\] B
*I _325_:Q B
*I _273_:I0 B
*CAP
1 DataIn[4] 2.124663
2 DataIn[4] DataOut[1] 0.004628
3 DataIn[4] DataOut[4] 0.004628
4 DataIn[4] OpMode[0] 0.004628
5 DataIn[4] VDD 0.036526
6 DataIn[4] VSS 0.014875
7 DataIn[4] rx_receiving 0.050905
*RES
1 DataIn[4] DataIn\[4\]:2 16.039300
2 DataIn[4] DataIn\[4\]:3 27.182400
3 DataIn[4] DataIn\[4\]:4 16.039300
4 DataIn[4] DataIn\[4\]:5 27.182400
5 DataIn[4] _325_:Q 0.000000
6 DataIn[4] _273_:I0 0.000000
*END

*D_NET DataIn\[5\] 3.912055
*CONN
*P DataIn\[5\] B
*I _326_:Q B
*I _270_:I0 B
*CAP
1 DataIn[5] 3.773551
2 DataIn[5] DataIn[7] 0.004628
3 DataIn[5] DataOut[1] 0.004628
4 DataIn[5] DataOut[4] 0.004628
5 DataIn[5] DataOut[6] 0.004628
6 DataIn[5] DataOut[7] 0.004628
7 DataIn[5] OpMode[0] 0.004628
8 DataIn[5] RxError 0.004628
9 DataIn[5] TxReady 0.004628
10 DataIn[5] VDD 0.044624
11 DataIn[5] VSS 0.029750
12 DataIn[5] _096_ 0.013222
13 DataIn[5] _101_ 0.004628
14 DataIn[5] clk 0.004628
15 DataIn[5] txdp 0.004628
*RES
1 DataIn[5] DataIn\[5\]:2 18.751900
2 DataIn[5] DataIn\[5\]:3 28.418800
3 DataIn[5] DataIn\[5\]:4 18.751900
4 DataIn[5] DataIn\[5\]:5 28.418800
5 DataIn[5] _326_:Q 0.000000
6 DataIn[5] _270_:I0 0.000000
*END

*D_NET DataIn\[6\] 4.171984
*CONN
*P DataIn\[6\] B
*I _327_:Q B
*I _269_:I0 B
*CAP
1 DataIn[6] 4.002670
2 DataIn[6] DataOut[1] 0.008429
3 DataIn[6] OpMode[0] 0.004628
4 DataIn[6] TxValid 0.023139
5 DataIn[6] VDD 0.058012
6 DataIn[6] VSS 0.048001
7 DataIn[6] _096_ 0.008594
8 DataIn[6] clknet_3_3__leaf_clk 0.004628
9 DataIn[6] rx_receiving 0.004628
10 DataIn[6] rx_shift[6] 0.009255
*RES
1 DataIn[6] DataIn\[6\]:2 18.924100
2 DataIn[6] DataIn\[6\]:3 28.679800
3 DataIn[6] DataIn\[6\]:4 18.924100
4 DataIn[6] DataIn\[6\]:5 28.679800
5 DataIn[6] _327_:Q 0.000000
6 DataIn[6] _269_:I0 0.000000
*END

*D_NET DataIn\[7\] 5.644527
*CONN
*P DataIn\[7\] B
*I _328_:Q B
*I _220_:I0 B
*CAP
1 DataIn[7] 5.435376
2 DataIn[7] DataOut[3] 0.004628
3 DataIn[7] DataOut[6] 0.004628
4 DataIn[7] DataOut[7] 0.004628
5 DataIn[7] OpMode[0] 0.004628
6 DataIn[7] VDD 0.080072
7 DataIn[7] VSS 0.080072
8 DataIn[7] _096_ 0.007355
9 DataIn[7] _099_ 0.004628
10 DataIn[7] _107_ 0.004628
11 DataIn[7] clk 0.004628
12 DataIn[7] clknet_0_clk 0.004628
13 DataIn[7] txdp 0.004628
*RES
1 DataIn[7] DataIn\[7\]:2 20.151700
2 DataIn[7] DataIn\[7\]:3 30.540300
3 DataIn[7] DataIn\[7\]:4 20.151700
4 DataIn[7] DataIn\[7\]:5 30.540300
5 DataIn[7] _328_:Q 0.000000
6 DataIn[7] _220_:I0 0.000000
*END

*D_NET DataOut\[0\] 2.638426
*CONN
*P DataOut\[0\] B
*I _240_:I B
*CAP
1 DataOut[0] 2.506863
2 DataOut[0] DataOut[2] 0.023139
3 DataOut[0] DataOut[6] 0.004628
4 DataOut[0] DataOut[7] 0.004628
5 DataOut[0] OpMode[1] 0.004628
6 DataOut[0] Reset 0.004628
7 DataOut[0] RxValid 0.004628
8 DataOut[0] TxReady 0.004628
9 DataOut[0] VDD 0.014875
10 DataOut[0] VSS 0.014875
11 DataOut[0] _101_ 0.004628
12 DataOut[0] line_state[0] 0.004628
13 DataOut[0] line_state[1] 0.004628
14 DataOut[0] rst_n 0.013883
15 DataOut[0] rxdm 0.004628
16 DataOut[0] rxdp 0.004628
17 DataOut[0] txdm 0.013883
*RES
1 DataOut[0] DataOut\[0\]:2 44.404700
2 DataOut[0] DataOut\[0\]:3 44.404700
3 DataOut[0] _240_:I 0.000000
*END

*D_NET DataOut\[1\] 3.390009
*CONN
*P DataOut\[1\] B
*I _237_:I B
*CAP
1 DataOut[1] 3.272366
2 DataOut[1] DataOut[4] 0.004628
3 DataOut[1] OpMode[0] 0.004628
4 DataOut[1] RxError 0.004628
5 DataOut[1] VDD 0.050322
6 DataOut[1] VSS 0.048809
7 DataOut[1] _096_ 0.004628
*RES
1 DataOut[1] DataOut\[1\]:2 46.006600
2 DataOut[1] DataOut\[1\]:3 46.006600
3 DataOut[1] _237_:I 0.000000
*END

*D_NET DataOut\[2\] 5.674704
*CONN
*P DataOut\[2\] B
*I _234_:I B
*CAP
1 DataOut[2] 5.282496
2 DataOut[2] DataOut[5] 0.004628
3 DataOut[2] DataOut[6] 0.023139
4 DataOut[2] DataOut[7] 0.023139
5 DataOut[2] OpMode[1] 0.004628
6 DataOut[2] RxValid 0.004628
7 DataOut[2] TxReady 0.009255
8 DataOut[2] VDD 0.092295
9 DataOut[2] VSS 0.132457
10 DataOut[2] _020_ 0.004628
11 DataOut[2] _024_ 0.004628
12 DataOut[2] _038_ 0.009255
13 DataOut[2] _051_ 0.003664
14 DataOut[2] _052_ 0.004628
15 DataOut[2] _092_ 0.004628
16 DataOut[2] _097_ 0.004628
17 DataOut[2] _101_ 0.009255
18 DataOut[2] _130_ 0.004628
19 DataOut[2] byte_reg[0] 0.004628
20 DataOut[2] byte_reg[3] 0.004628
21 DataOut[2] clknet_3_7__leaf_clk 0.009255
22 DataOut[2] line_state[0] 0.004628
23 DataOut[2] line_state[1] 0.004628
24 DataOut[2] rst_n 0.004628
25 DataOut[2] rxdm 0.004628
26 DataOut[2] rxdp 0.001818
27 DataOut[2] txdm 0.004628
28 DataOut[2] u_line_state\/_2_ 0.004628
*RES
1 DataOut[2] DataOut\[2\]:2 51.612700
2 DataOut[2] DataOut\[2\]:3 51.612800
3 DataOut[2] _234_:I 0.000000
*END

*D_NET DataOut\[3\] 1.574923
*CONN
*P DataOut\[3\] B
*I _228_:I B
*CAP
1 DataOut[3] 1.546164
2 DataOut[3] DataOut[6] 0.004628
3 DataOut[3] OpMode[0] 0.004628
4 DataOut[3] VDD 0.014875
5 DataOut[3] txdp 0.004628
*RES
1 DataOut[3] DataOut\[3\]:2 41.990500
2 DataOut[3] DataOut\[3\]:3 41.990500
3 DataOut[3] _228_:I 0.000000
*END

*D_NET DataOut\[4\] 4.079953
*CONN
*P DataOut\[4\] B
*I _225_:I B
*CAP
1 DataOut[4] 3.930289
2 DataOut[4] DataOut[6] 0.009255
3 DataOut[4] OpMode[0] 0.004628
4 DataOut[4] RxError 0.004628
5 DataOut[4] VDD 0.066252
6 DataOut[4] VSS 0.044624
7 DataOut[4] _107_ 0.011022
8 DataOut[4] clk 0.009255
*RES
1 DataOut[4] DataOut\[4\]:2 47.536400
2 DataOut[4] DataOut\[4\]:3 47.536500
3 DataOut[4] _225_:I 0.000000
*END

*D_NET DataOut\[5\] 1.815927
*CONN
*P DataOut\[5\] B
*I _222_:I B
*CAP
1 DataOut[5] 1.754006
2 DataOut[5] DataOut[6] 0.004628
3 DataOut[5] OpMode[0] 0.009255
4 DataOut[5] Reset 0.004628
5 DataOut[5] RxValid 0.004628
6 DataOut[5] TxReady 0.004628
7 DataOut[5] VDD 0.014875
8 DataOut[5] _097_ 0.000767
9 DataOut[5] rst_n 0.004628
10 DataOut[5] rxdm 0.004628
11 DataOut[5] txdm 0.004628
12 DataOut[5] u_line_state\/_2_ 0.004628
*RES
1 DataOut[5] DataOut\[5\]:2 42.524000
2 DataOut[5] DataOut\[5\]:3 42.524000
3 DataOut[5] _222_:I 0.000000
*END

*D_NET DataOut\[6\] 4.237244
*CONN
*P DataOut\[6\] B
*I _211_:I B
*CAP
1 DataOut[6] 4.114937
2 DataOut[6] DataOut[7] 0.009255
3 DataOut[6] OpMode[1] 0.004628
4 DataOut[6] Reset 0.004628
5 DataOut[6] RxError 0.004628
6 DataOut[6] RxValid 0.004628
7 DataOut[6] TxReady 0.004628
8 DataOut[6] VDD 0.014875
9 DataOut[6] VSS 0.014875
10 DataOut[6] _101_ 0.004628
11 DataOut[6] clk 0.013883
12 DataOut[6] clknet_3_7__leaf_clk 0.004628
13 DataOut[6] line_state[0] 0.004628
14 DataOut[6] line_state[1] 0.004628
15 DataOut[6] rst_n 0.004628
16 DataOut[6] rxdm 0.004628
17 DataOut[6] rxdp 0.004628
18 DataOut[6] txdm 0.004628
19 DataOut[6] txdp 0.009255
*RES
1 DataOut[6] DataOut\[6\]:2 48.544700
2 DataOut[6] DataOut\[6\]:3 48.544700
3 DataOut[6] _211_:I 0.000000
*END

*D_NET DataOut\[7\] 4.566544
*CONN
*P DataOut\[7\] B
*I _274_:I B
*CAP
1 DataOut[7] 4.351683
2 DataOut[7] OpMode[0] 0.009255
3 DataOut[7] OpMode[1] 0.004628
4 DataOut[7] Reset 0.004628
5 DataOut[7] RxValid 0.004628
6 DataOut[7] TxReady 0.004628
7 DataOut[7] VDD 0.088918
8 DataOut[7] VSS 0.014875
9 DataOut[7] _024_ 0.004628
10 DataOut[7] _097_ 0.018511
11 DataOut[7] byte_reg[0] 0.004628
12 DataOut[7] clknet_3_7__leaf_clk 0.009255
13 DataOut[7] line_state[0] 0.004628
14 DataOut[7] line_state[1] 0.004628
15 DataOut[7] rst_n 0.004628
16 DataOut[7] rxdm 0.004628
17 DataOut[7] txdm 0.004628
18 DataOut[7] txdp 0.018511
19 DataOut[7] u_line_state\/_2_ 0.004628
*RES
1 DataOut[7] DataOut\[7\]:2 49.174600
2 DataOut[7] DataOut\[7\]:3 49.174600
3 DataOut[7] _274_:I 0.000000
*END

*D_NET OpMode\[0\] 9.458456
*CONN
*P OpMode\[0\] B
*I _194_:A2 B
*I _193_:A2 B
*CAP
1 OpMode[0] 9.069407
2 OpMode[0] RxError 0.004628
3 OpMode[0] RxValid 0.004628
4 OpMode[0] TxValid 0.009255
5 OpMode[0] VDD 0.118998
6 OpMode[0] VSS 0.132403
7 OpMode[0] _009_ 0.003801
8 OpMode[0] _053_ 0.004628
9 OpMode[0] _068_ 0.008429
10 OpMode[0] _070_ 0.004628
11 OpMode[0] _071_ 0.004628
12 OpMode[0] _092_ 0.004628
13 OpMode[0] _099_ 0.004628
14 OpMode[0] _101_ 0.004628
15 OpMode[0] _107_ 0.004628
16 OpMode[0] clk 0.004628
17 OpMode[0] clknet_0_clk 0.004628
18 OpMode[0] clknet_3_6__leaf_clk 0.009255
19 OpMode[0] line_state[0] 0.004628
20 OpMode[0] line_state[1] 0.004628
21 OpMode[0] nrzi_level 0.004628
22 OpMode[0] rx_receiving 0.004628
23 OpMode[0] rxdm 0.004628
24 OpMode[0] tx_state[1] 0.004628
25 OpMode[0] txdp 0.005093
26 OpMode[0] u_encoder\/_1_ 0.013883
27 OpMode[0] u_line_state\/_1_ 0.004628
28 OpMode[0] u_line_state\/_2_ 0.004628
*RES
1 OpMode[0] OpMode\[0\]:2 22.853600
2 OpMode[0] OpMode\[0\]:3 87.910600
3 OpMode[0] OpMode\[0\]:4 84.508200
4 OpMode[0] OpMode\[0\]:5 19.600100
5 OpMode[0] _194_:A2 0.000000
6 OpMode[0] _193_:A2 0.000000
*END

*D_NET OpMode\[1\] 5.891838
*CONN
*P OpMode\[1\] B
*I _192_:I B
*CAP
1 OpMode[1] 5.562361
2 OpMode[1] RxValid 0.004628
3 OpMode[1] TxReady 0.004628
4 OpMode[1] TxValid 0.004628
5 OpMode[1] VDD 0.107099
6 OpMode[1] VSS 0.098504
7 OpMode[1] ZN:1 0.014063
8 OpMode[1] _052_ 0.009255
9 OpMode[1] _053_ 0.004628
10 OpMode[1] _077_ 0.010973
11 OpMode[1] _092_ 0.004628
12 OpMode[1] _097_ 0.013883
13 OpMode[1] _100_ 0.004628
14 OpMode[1] _101_ 0.004628
15 OpMode[1] _107_ 0.004628
16 OpMode[1] clknet_0_clk 0.004628
17 OpMode[1] clknet_3_6__leaf_clk 0.015536
18 OpMode[1] line_state[0] 0.004628
19 OpMode[1] line_state[1] 0.004628
20 OpMode[1] rxdp 0.004628
21 OpMode[1] tx_state[7] 0.004628
*RES
1 OpMode[1] OpMode\[1\]:2 51.191300
2 OpMode[1] OpMode\[1\]:3 51.191300
3 OpMode[1] _192_:I 0.000000
*END

*D_NET Reset 1.484975
*CONN
*P Reset B
*I _149_:I B
*CAP
1 Reset 1.438630
2 Reset RxValid 0.004628
3 Reset TxReady 0.004628
4 Reset VDD 0.014875
5 Reset VSS 0.017586
6 Reset _101_ 0.004628
*RES
1 Reset Reset:2 41.653200
2 Reset Reset:3 41.653300
3 Reset _149_:I 0.000000
*END

*D_NET RxError 3.796698
*CONN
*P RxError B
*I _313_:Q B
*CAP
1 RxError 3.640814
2 RxError VDD 0.065896
3 RxError VSS 0.071477
4 RxError clk 0.004628
5 RxError txdp 0.013883
*RES
1 RxError RxError:2 8.199400
2 RxError RxError:3 8.199300
3 RxError _313_:Q 0.000000
*END

*D_NET RxValid 2.021163
*CONN
*P RxValid B
*I _320_:Q B
*CAP
1 RxValid 1.959018
2 RxValid TxReady 0.004628
3 RxValid VDD 0.014875
4 RxValid VSS 0.014875
5 RxValid _101_ 0.004628
6 RxValid rst_n 0.004628
7 RxValid rxdm 0.004628
8 RxValid rxdp 0.009255
9 RxValid txdm 0.004628
*RES
1 RxValid RxValid:2 4.421000
2 RxValid RxValid:3 4.420900
3 RxValid _320_:Q 0.000000
*END

*D_NET SuspendM 0.055463
*CONN
*P SuspendM B
*CAP
1 SuspendM:2 0.055463
*RES
1 SuspendM SuspendM:2 0.167100
*END

*D_NET TermSelect 0.055463
*CONN
*P TermSelect B
*CAP
1 TermSelect:2 0.055463
*RES
1 TermSelect TermSelect:2 0.167100
*END

*D_NET TxReady 6.764174
*CONN
*P TxReady B
*I _185_:ZN B
*CAP
1 TxReady 6.429007
2 TxReady TxValid 0.004628
3 TxReady VDD 0.111005
4 TxReady VSS 0.118306
5 TxReady _004_ 0.008671
6 TxReady _052_ 0.004628
7 TxReady _053_ 0.009255
8 TxReady _055_ 0.004628
9 TxReady _059_ 0.004628
10 TxReady _092_ 0.009255
11 TxReady _101_ 0.004628
12 TxReady _108_ 0.004628
13 TxReady _109_ 0.004628
14 TxReady byte_reg[5] 0.004628
15 TxReady clknet_0_clk 0.004628
16 TxReady line_state[0] 0.004628
17 TxReady line_state[1] 0.004628
18 TxReady rst_n 0.004628
19 TxReady rxdm 0.004628
20 TxReady rxdp 0.004628
21 TxReady txdm 0.004628
22 TxReady txdp 0.009255
*RES
1 TxReady TxReady:2 6.381200
2 TxReady TxReady:3 8.690700
3 TxReady TxReady:4 8.405100
4 TxReady TxReady:5 6.594000
5 TxReady _185_:ZN 0.000000
*END

*D_NET TxValid 19.476286
*CONN
*P TxValid B
*I _281_:A1 B
*I _255_:I1 B
*I _212_:A2 B
*I _188_:A1 B
*I _163_:A1 B
*I _162_:A1 B
*I _155_:A1 B
*CAP
1 TxValid 18.620668
2 TxValid VDD 0.296133
3 TxValid VSS 0.237336
4 TxValid _003_ 0.004628
5 TxValid _005_ 0.002630
6 TxValid _008_ 0.004628
7 TxValid _012_ 0.004628
8 TxValid _053_ 0.009255
9 TxValid _055_ 0.025618
10 TxValid _056_ 0.004628
11 TxValid _059_ 0.009255
12 TxValid _060_ 0.004628
13 TxValid _061_ 0.013532
14 TxValid _070_ 0.000826
15 TxValid _072_ 0.004628
16 TxValid _075_ 0.006025
17 TxValid _079_ 0.004628
18 TxValid _091_ 0.005717
19 TxValid _092_ 0.003801
20 TxValid _096_ 0.017417
21 TxValid _134_ 0.003801
22 TxValid byte_idx[0] 0.004628
23 TxValid byte_idx[1] 0.004628
24 TxValid byte_idx[2] 0.004628
25 TxValid clk 0.004628
26 TxValid clknet_0_clk 0.009255
27 TxValid clknet_3_3__leaf_clk 0.004628
28 TxValid clknet_3_6__leaf_clk 0.011239
29 TxValid line_state[0] 0.004628
30 TxValid line_state[1] 0.004628
31 TxValid nrzi_level 0.001806
32 TxValid rx_out_bit 0.004628
33 TxValid rx_receiving 0.004628
34 TxValid rx_shift[6] 0.009255
35 TxValid stuff_consume 0.013883
36 TxValid tx_state[0] 0.045451
37 TxValid tx_state[2] 0.023965
38 TxValid tx_state[3] 0.010247
39 TxValid tx_state[4] 0.004628
40 TxValid tx_state[5] 0.001983
41 TxValid tx_state[6] 0.004628
42 TxValid tx_state[7] 0.004628
43 TxValid txdm 0.004628
44 TxValid txdp 0.004628
*RES
1 TxValid TxValid:2 26.161300
2 TxValid TxValid:3 33.541900
3 TxValid TxValid:4 106.777900
4 TxValid TxValid:5 104.533100
5 TxValid TxValid:6 55.368600
6 TxValid TxValid:7 51.970400
7 TxValid TxValid:8 56.563900
8 TxValid TxValid:9 5.167900
9 TxValid TxValid:10 6.590000
10 TxValid TxValid:11 7.505900
11 TxValid TxValid:12 71.203000
12 TxValid TxValid:13 6.162600
13 TxValid TxValid:14 76.186400
14 TxValid TxValid:15 43.269900
15 TxValid TxValid:16 56.887800
16 TxValid TxValid:17 78.525500
17 TxValid TxValid:18 37.542000
18 TxValid TxValid:19 86.786200
19 TxValid _281_:A1 0.000000
20 TxValid _255_:I1 0.000000
21 TxValid _212_:A2 0.000000
22 TxValid _188_:A1 0.000000
23 TxValid _163_:A1 0.000000
24 TxValid _162_:A1 0.000000
25 TxValid _155_:A1 0.000000
*END

*D_NET VDD 557.401192
*CONN
*P VDD B
*CAP
1 VDD 529.930917
2 VDD VSS 9.477484
3 VDD _000_ 0.014875
4 VDD _001_ 0.014875
5 VDD _004_ 0.014875
6 VDD _005_ 0.071730
7 VDD _006_ 0.088918
8 VDD _007_ 0.029750
9 VDD _008_ 0.081865
10 VDD _010_ 0.088918
11 VDD _011_ 0.014875
12 VDD _012_ 0.174649
13 VDD _017_ 0.014875
14 VDD _018_ 0.014875
15 VDD _020_ 0.014875
16 VDD _021_ 0.014875
17 VDD _022_ 0.014875
18 VDD _023_ 0.014875
19 VDD _024_ 0.014875
20 VDD _025_ 0.014875
21 VDD _026_ 0.043738
22 VDD _030_ 0.014875
23 VDD _031_ 0.014875
24 VDD _033_ 0.034482
25 VDD _036_ 0.014875
26 VDD _043_ 0.014875
27 VDD _045_ 0.044250
28 VDD _048_ 0.014875
29 VDD _049_ 0.014875
30 VDD _050_ 0.064232
31 VDD _052_ 0.574615
32 VDD _053_ 0.855720
33 VDD _055_ 0.088422
34 VDD _056_ 0.014875
35 VDD _057_ 0.014875
36 VDD _058_ 0.014875
37 VDD _059_ 0.077184
38 VDD _060_ 0.003140
39 VDD _061_ 0.125775
40 VDD _062_ 0.052062
41 VDD _063_ 0.177837
42 VDD _064_ 0.044624
43 VDD _066_ 0.031237
44 VDD _067_ 0.015226
45 VDD _068_ 0.029750
46 VDD _069_ 0.014875
47 VDD _073_ 0.014875
48 VDD _074_ 0.014875
49 VDD _075_ 0.029750
50 VDD _077_ 0.021272
51 VDD _078_ 0.046909
52 VDD _080_ 0.014875
53 VDD _081_ 0.014875
54 VDD _082_ 0.014875
55 VDD _083_ 0.014875
56 VDD _084_ 0.180274
57 VDD _085_ 0.014875
58 VDD _086_ 0.190853
59 VDD _088_ 0.014875
60 VDD _089_ 0.197197
61 VDD _090_ 0.014875
62 VDD _091_ 0.018062
63 VDD _092_ 0.265865
64 VDD _095_ 0.108526
65 VDD _096_ 0.307058
66 VDD _097_ 0.014875
67 VDD _101_ 0.088918
68 VDD _103_ 0.014875
69 VDD _106_ 0.014875
70 VDD _107_ 0.017131
71 VDD _109_ 0.045781
72 VDD _110_ 0.030907
73 VDD _114_ 0.030907
74 VDD _118_ 0.014875
75 VDD _119_ 0.094042
76 VDD _120_ 0.142798
77 VDD _121_ 0.014875
78 VDD _122_ 0.016249
79 VDD _123_ 0.019337
80 VDD _124_ 0.014875
81 VDD _125_ 0.014875
82 VDD _126_ 0.054658
83 VDD _127_ 0.014875
84 VDD _128_ 0.015083
85 VDD _130_ 0.014875
86 VDD _131_ 0.018015
87 VDD _132_ 0.103793
88 VDD _133_ 0.035272
89 VDD _134_ 0.245325
90 VDD _135_ 0.039073
91 VDD _136_ 0.014875
92 VDD _137_ 0.014875
93 VDD _138_ 0.014875
94 VDD _139_ 0.014875
95 VDD _140_ 0.029750
96 VDD _141_ 0.073713
97 VDD _142_ 0.083629
98 VDD _143_ 0.021651
99 VDD _144_ 0.027270
100 VDD _147_ 0.014875
101 VDD bus_reset 0.018015
102 VDD byte_idx[0] 0.267764
103 VDD byte_idx[1] 0.187551
104 VDD byte_idx[2] 0.239650
105 VDD byte_reg[0] 0.059499
106 VDD byte_reg[1] 0.111912
107 VDD byte_reg[2] 0.074043
108 VDD byte_reg[3] 0.064292
109 VDD byte_reg[4] 0.022002
110 VDD byte_reg[5] 0.112048
111 VDD byte_reg[7] 0.014875
112 VDD clk 0.120116
113 VDD clknet_0_clk 0.582622
114 VDD clknet_3_0__leaf_clk 0.283282
115 VDD clknet_3_1__leaf_clk 0.348587
116 VDD clknet_3_2__leaf_clk 0.402988
117 VDD clknet_3_3__leaf_clk 0.374585
118 VDD clknet_3_4__leaf_clk 0.101810
119 VDD clknet_3_5__leaf_clk 0.202901
120 VDD clknet_3_6__leaf_clk 0.097133
121 VDD clknet_3_7__leaf_clk 0.243345
122 VDD dec_bit_level 0.027270
123 VDD dec_bit_strobe 0.014875
124 VDD dec_data_bit 0.068212
125 VDD dec_data_strobe 0.133888
126 VDD entering_sync 0.107264
127 VDD first_byte 0.014875
128 VDD line_state[0] 0.356995
129 VDD line_state[1] 0.157822
130 VDD nrzi_level 0.135361
131 VDD raw_mode 0.117239
132 VDD rst_n 0.014875
133 VDD rx_assembly_en 0.061857
134 VDD rx_bit_valid 0.029750
135 VDD rx_bitcnt[0] 0.014875
136 VDD rx_bitcnt[1] 0.014875
137 VDD rx_bitcnt[2] 0.031733
138 VDD rx_out_bit 0.156185
139 VDD rx_receiving 0.416188
140 VDD rx_shift[1] 0.026270
141 VDD rx_shift[2] 0.029750
142 VDD rx_shift[3] 0.118668
143 VDD rx_shift[4] 0.029750
144 VDD rx_shift[5] 0.029750
145 VDD rx_shift[6] 0.149979
146 VDD rx_shift[7] 0.032291
147 VDD rx_stuff_err 0.014875
148 VDD rxdm 0.040186
149 VDD rxdp 0.014875
150 VDD stuff_bit_out 0.030907
151 VDD stuff_consume 0.168929
152 VDD stuff_pending_after 0.045947
153 VDD sync_idx[0] 0.152793
154 VDD sync_idx[1] 0.077787
155 VDD sync_idx[2] 0.110074
156 VDD sync_next 0.074043
157 VDD tx_body_active 0.187735
158 VDD tx_state[0] 0.031898
159 VDD tx_state[1] 0.012396
160 VDD tx_state[2] 0.360581
161 VDD tx_state[4] 0.238989
162 VDD tx_state[5] 0.014875
163 VDD tx_state[6] 0.134176
164 VDD tx_state[7] 0.014875
165 VDD txdm 0.115253
166 VDD txdp 0.089249
167 VDD u_decoder\/_01_ 0.098174
168 VDD u_decoder\/_02_ 0.020342
169 VDD u_decoder\/_03_ 0.088918
170 VDD u_decoder\/_04_ 0.074043
171 VDD u_decoder\/prev_level 0.018015
172 VDD u_destuffer\/_00_ 0.043373
173 VDD u_destuffer\/_01_ 0.028112
174 VDD u_destuffer\/_02_ 0.029750
175 VDD u_destuffer\/_03_ 0.014875
176 VDD u_destuffer\/_06_ 0.088918
177 VDD u_destuffer\/_07_ 0.014875
178 VDD u_destuffer\/_08_ 0.180481
179 VDD u_destuffer\/_09_ 0.064292
180 VDD u_destuffer\/_10_ 0.103793
181 VDD u_destuffer\/_11_ 0.014875
182 VDD u_destuffer\/_12_ 0.118668
183 VDD u_destuffer\/_15_ 0.088918
184 VDD u_destuffer\/ones_run[0] 0.061029
185 VDD u_destuffer\/ones_run[1] 0.040186
186 VDD u_encoder\/_1_ 0.014875
187 VDD u_encoder\/_2_ 0.019697
188 VDD u_eop_detector\/_00_ 0.014875
189 VDD u_eop_detector\/_03_ 0.014875
190 VDD u_eop_detector\/_04_ 0.014875
191 VDD u_eop_detector\/_05_ 0.014875
192 VDD u_eop_detector\/_06_ 0.014875
193 VDD u_eop_detector\/_07_ 0.014875
194 VDD u_eop_detector\/_08_ 0.047812
195 VDD u_eop_detector\/_09_ 0.233918
196 VDD u_eop_detector\/_10_ 0.069463
197 VDD u_eop_detector\/_11_ 0.014875
198 VDD u_eop_detector\/_12_ 0.074043
199 VDD u_eop_detector\/_13_ 0.014875
200 VDD u_eop_detector\/_14_ 0.014875
201 VDD u_eop_detector\/_15_ 0.124948
202 VDD u_eop_detector\/_16_ 0.016197
203 VDD u_eop_detector\/_17_ 0.048426
204 VDD u_eop_detector\/_18_ 0.014875
205 VDD u_eop_detector\/_19_ 0.029750
206 VDD u_eop_detector\/_20_ 0.020572
207 VDD u_eop_detector\/_21_ 0.034873
208 VDD u_eop_detector\/_23_ 0.014875
209 VDD u_eop_detector\/_24_ 0.014875
210 VDD u_eop_detector\/_25_ 0.039265
211 VDD u_eop_detector\/se0_count[0] 0.061583
212 VDD u_eop_detector\/se0_count[1] 0.054140
213 VDD u_eop_detector\/se0_count[2] 0.044624
214 VDD u_eop_detector\/se0_count[3] 0.081969
215 VDD u_eop_detector\/se0_count[4] 0.053917
216 VDD u_eop_detector\/se0_count[5] 0.036030
217 VDD u_line_state\/_2_ 0.029750
218 VDD u_stuffer\/_00_ 0.044624
219 VDD u_stuffer\/_01_ 0.028112
220 VDD u_stuffer\/_02_ 0.015164
221 VDD u_stuffer\/_03_ 0.048001
222 VDD u_stuffer\/_04_ 0.105286
223 VDD u_stuffer\/_05_ 0.012396
224 VDD u_stuffer\/_06_ 0.014875
225 VDD u_stuffer\/_09_ 0.035447
226 VDD u_stuffer\/_10_ 0.014875
227 VDD u_stuffer\/_11_ 0.088918
228 VDD u_stuffer\/_12_ 0.103793
229 VDD u_stuffer\/_13_ 0.014875
230 VDD u_stuffer\/run[0] 0.057562
231 VDD u_stuffer\/run[1] 0.054334
232 VDD u_stuffer\/run[2] 0.088918
233 VDD u_sync_detector\/_01_ 0.021416
234 VDD u_sync_detector\/_02_ 0.082803
235 VDD u_sync_detector\/_03_ 0.027270
236 VDD u_sync_detector\/_06_ 0.029750
237 VDD u_sync_detector\/_07_ 0.029750
238 VDD u_sync_detector\/_09_ 0.063466
239 VDD u_sync_detector\/_10_ 0.018015
240 VDD u_sync_detector\/_11_ 0.037959
241 VDD u_sync_detector\/_12_ 0.029750
242 VDD u_sync_detector\/_13_ 0.003140
243 VDD u_sync_detector\/_14_ 0.036526
244 VDD u_sync_detector\/match[0] 0.071973
245 VDD u_sync_detector\/match[1] 0.051401
246 VDD u_sync_detector\/match[2] 0.024901
247 VDD u_sync_detector\/match[3] 0.014875
*RES
1 VDD VDD:2 0.283200
2 VDD VDD:3 0.283200
3 VDD VDD:4 0.281900
4 VDD VDD:5 0.280700
5 VDD VDD:6 0.279400
6 VDD VDD:7 0.279400
7 VDD VDD:8 0.270400
8 VDD VDD:9 0.270400
9 VDD VDD:10 0.278600
10 VDD VDD:11 0.278600
11 VDD VDD:12 0.277800
12 VDD VDD:13 0.277000
13 VDD VDD:14 0.265000
14 VDD VDD:15 0.265000
15 VDD VDD:16 0.270200
16 VDD VDD:17 0.270300
17 VDD VDD:18 0.270500
18 VDD VDD:19 0.270500
19 VDD VDD:20 0.273600
20 VDD VDD:21 0.272700
21 VDD VDD:22 0.269800
22 VDD VDD:23 0.268700
23 VDD VDD:24 0.268200
24 VDD VDD:25 0.267500
25 VDD VDD:26 0.266800
26 VDD VDD:27 0.265700
27 VDD VDD:28 0.265300
28 VDD VDD:29 0.264700
29 VDD VDD:30 0.269800
30 VDD VDD:31 0.269800
31 VDD VDD:32 0.252300
32 VDD VDD:33 0.252300
33 VDD VDD:34 0.260100
34 VDD VDD:35 0.251000
35 VDD VDD:36 0.258400
36 VDD VDD:37 0.249200
37 VDD VDD:38 0.248000
38 VDD VDD:39 0.247000
39 VDD VDD:40 0.246100
40 VDD VDD:41 0.246700
41 VDD VDD:42 0.231500
42 VDD VDD:43 0.238700
43 VDD VDD:44 0.238600
44 VDD VDD:45 0.238900
45 VDD VDD:46 0.238900
46 VDD VDD:47 0.239000
47 VDD VDD:48 0.239000
48 VDD VDD:49 0.262500
49 VDD VDD:50 0.216800
50 VDD VDD:51 0.216800
51 VDD VDD:52 0.215900
52 VDD VDD:53 0.212700
53 VDD VDD:54 0.211300
54 VDD VDD:55 0.210700
55 VDD VDD:56 0.209500
56 VDD VDD:57 0.209500
57 VDD VDD:58 0.207100
58 VDD VDD:59 0.206900
59 VDD VDD:60 0.206800
60 VDD VDD:61 0.210000
61 VDD VDD:62 0.210700
62 VDD VDD:63 0.258200
63 VDD VDD:64 0.255400
64 VDD VDD:65 0.209200
65 VDD VDD:66 0.209200
66 VDD VDD:67 0.208300
67 VDD VDD:68 0.205800
68 VDD VDD:69 0.241800
69 VDD VDD:70 0.241800
70 VDD VDD:71 0.226400
71 VDD VDD:72 0.226400
72 VDD VDD:73 0.224300
73 VDD VDD:74 0.221900
74 VDD VDD:75 0.185800
75 VDD VDD:76 0.187300
76 VDD VDD:77 0.196300
77 VDD VDD:78 0.196300
78 VDD VDD:79 0.188900
79 VDD VDD:80 0.202300
80 VDD VDD:81 0.209600
81 VDD VDD:82 0.212200
82 VDD VDD:83 0.214000
83 VDD VDD:84 0.214000
84 VDD VDD:85 0.214000
85 VDD VDD:86 0.221400
86 VDD VDD:87 0.218800
87 VDD VDD:88 0.201700
88 VDD VDD:89 0.196800
89 VDD VDD:90 0.196800
90 VDD VDD:91 0.139300
91 VDD VDD:92 0.138700
92 VDD VDD:93 0.138700
93 VDD VDD:94 0.150900
94 VDD VDD:95 0.153000
95 VDD VDD:96 0.182100
96 VDD VDD:97 0.185900
97 VDD VDD:98 0.188300
98 VDD VDD:99 0.179900
99 VDD VDD:100 0.204900
100 VDD VDD:101 0.202500
101 VDD VDD:102 0.216700
102 VDD VDD:103 0.221100
103 VDD VDD:104 0.108700
104 VDD VDD:105 0.109800
105 VDD VDD:106 0.111200
106 VDD VDD:107 0.112400
107 VDD VDD:108 0.113300
108 VDD VDD:109 0.129700
109 VDD VDD:110 0.132100
110 VDD VDD:111 0.134100
111 VDD VDD:112 0.144900
112 VDD VDD:113 0.144900
113 VDD VDD:114 0.147000
114 VDD VDD:115 0.179600
115 VDD VDD:116 0.179600
116 VDD VDD:117 0.083800
117 VDD VDD:118 0.084900
118 VDD VDD:119 0.087400
119 VDD VDD:120 0.089000
120 VDD VDD:121 0.132600
121 VDD VDD:122 0.132600
122 VDD VDD:123 0.135500
123 VDD VDD:124 0.180400
124 VDD VDD:125 0.176800
125 VDD VDD:126 0.086400
126 VDD VDD:127 0.082700
127 VDD VDD:128 0.081400
128 VDD VDD:129 0.081400
129 VDD VDD:130 0.081200
130 VDD VDD:131 0.081300
131 VDD VDD:132 0.081400
132 VDD VDD:133 0.081800
133 VDD VDD:134 0.082200
134 VDD VDD:135 0.082200
135 VDD VDD:136 0.080700
136 VDD VDD:137 0.082100
137 VDD VDD:138 0.194900
138 VDD VDD:139 0.198000
139 VDD VDD:140 0.256300
140 VDD VDD:141 0.259900
141 VDD VDD:142 0.081500
142 VDD VDD:143 0.080000
143 VDD VDD:144 0.078900
144 VDD VDD:145 0.077600
145 VDD VDD:146 0.165500
146 VDD VDD:147 0.165500
147 VDD VDD:148 0.162100
148 VDD VDD:149 0.162100
149 VDD VDD:150 0.180900
150 VDD VDD:151 0.185700
151 VDD VDD:152 0.191100
152 VDD VDD:153 0.195000
153 VDD VDD:154 0.229400
154 VDD VDD:155 0.225500
155 VDD VDD:156 0.141700
156 VDD VDD:157 0.141700
157 VDD VDD:158 0.138600
158 VDD VDD:159 0.132200
159 VDD VDD:160 0.128200
160 VDD VDD:161 0.164700
161 VDD VDD:162 0.160900
162 VDD VDD:163 0.109900
163 VDD VDD:164 0.109900
164 VDD VDD:165 0.113700
165 VDD VDD:166 0.167800
166 VDD VDD:167 0.174700
167 VDD VDD:168 0.181700
168 VDD VDD:169 0.185500
169 VDD VDD:170 0.189200
170 VDD VDD:171 0.168600
171 VDD VDD:172 0.164700
172 VDD VDD:173 0.104500
173 VDD VDD:174 0.098800
174 VDD VDD:175 0.095400
175 VDD VDD:176 0.100800
176 VDD VDD:177 0.104500
177 VDD VDD:178 0.214400
178 VDD VDD:179 0.210500
179 VDD VDD:180 0.202000
180 VDD VDD:181 0.205800
181 VDD VDD:182 0.250900
182 VDD VDD:183 0.171600
183 VDD VDD:184 0.168700
184 VDD VDD:185 0.121600
185 VDD VDD:186 0.121600
186 VDD VDD:187 0.124900
187 VDD VDD:188 0.127400
188 VDD VDD:189 0.130000
189 VDD VDD:190 0.132600
190 VDD VDD:191 0.148800
191 VDD VDD:192 0.274900
192 VDD VDD:193 0.278600
193 VDD VDD:194 0.278600
194 VDD VDD:195 0.265200
195 VDD VDD:196 0.262000
196 VDD VDD:197 0.259300
197 VDD VDD:198 0.278100
198 VDD VDD:199 0.282300
199 VDD VDD:200 0.284400
200 VDD VDD:201 0.287500
201 VDD VDD:202 0.290300
202 VDD VDD:203 0.247100
203 VDD VDD:204 0.250600
204 VDD VDD:205 0.154200
205 VDD VDD:206 0.157000
206 VDD VDD:207 0.273600
207 VDD VDD:208 0.265600
208 VDD VDD:209 0.268200
209 VDD VDD:210 0.270900
210 VDD VDD:211 0.151500
211 VDD VDD:212 0.244500
212 VDD VDD:213 0.242000
213 VDD VDD:214 0.238700
214 VDD VDD:215 0.238700
215 VDD VDD:216 0.175900
216 VDD VDD:217 0.175600
217 VDD VDD:218 0.174600
218 VDD VDD:219 0.101600
219 VDD VDD:220 0.175100
220 VDD VDD:221 0.171500
221 VDD VDD:222 0.135400
222 VDD VDD:223 0.129500
223 VDD VDD:224 0.125400
224 VDD VDD:225 0.210900
225 VDD VDD:226 0.206400
226 VDD VDD:227 0.208800
227 VDD VDD:228 0.099300
228 VDD VDD:229 0.148000
229 VDD VDD:230 0.208800
230 VDD VDD:231 0.099300
231 VDD VDD:232 0.148000
232 VDD VDD:233 0.151500
233 VDD VDD:234 0.097100
234 VDD VDD:235 0.208100
235 VDD VDD:236 0.151500
236 VDD VDD:237 0.097100
237 VDD VDD:238 0.208100
238 VDD VDD:239 0.196500
239 VDD VDD:240 0.257600
240 VDD VDD:241 0.159800
241 VDD VDD:242 0.111700
242 VDD VDD:243 0.222100
243 VDD VDD:244 0.276300
244 VDD VDD:245 0.140500
245 VDD VDD:246 0.218900
246 VDD VDD:247 0.109300
247 VDD VDD:248 0.193400
248 VDD VDD:249 0.216500
249 VDD VDD:250 0.107500
250 VDD VDD:251 0.191200
251 VDD VDD:252 0.188100
252 VDD VDD:253 0.105100
253 VDD VDD:254 0.213400
254 VDD VDD:255 0.050400
255 VDD VDD:256 0.050400
256 VDD VDD:257 0.053400
257 VDD VDD:258 0.057800
258 VDD VDD:259 0.060300
259 VDD VDD:260 0.063400
260 VDD VDD:261 0.066700
261 VDD VDD:262 0.066700
262 VDD VDD:263 0.103300
263 VDD VDD:264 0.101100
264 VDD VDD:265 0.131400
265 VDD VDD:266 0.135500
266 VDD VDD:267 0.178300
267 VDD VDD:268 0.029900
268 VDD VDD:269 0.032900
269 VDD VDD:270 0.040600
270 VDD VDD:271 0.044400
271 VDD VDD:272 0.182600
272 VDD VDD:273 0.232100
273 VDD VDD:274 0.179100
274 VDD VDD:275 0.182600
275 VDD VDD:276 0.232100
276 VDD VDD:277 0.179100
277 VDD VDD:278 0.200900
278 VDD VDD:279 0.194600
279 VDD VDD:280 0.151200
280 VDD VDD:281 0.191500
281 VDD VDD:282 0.188400
282 VDD VDD:283 0.177100
283 VDD VDD:284 0.149100
284 VDD VDD:285 0.204000
285 VDD VDD:286 0.160200
286 VDD VDD:287 0.176000
287 VDD VDD:288 0.172900
288 VDD VDD:289 0.169800
289 VDD VDD:290 0.166800
290 VDD VDD:291 0.163700
291 VDD VDD:292 0.160600
292 VDD VDD:293 0.179400
293 VDD VDD:294 0.157600
294 VDD VDD:295 0.229000
295 VDD VDD:296 0.225800
296 VDD VDD:297 0.207100
297 VDD VDD:298 0.154500
298 VDD VDD:299 0.210200
299 VDD VDD:300 0.213300
300 VDD VDD:301 0.139400
301 VDD VDD:302 0.136400
302 VDD VDD:303 0.162500
303 VDD VDD:304 0.164900
304 VDD VDD:305 0.167300
305 VDD VDD:306 0.169700
306 VDD VDD:307 0.172100
307 VDD VDD:308 0.216400
308 VDD VDD:309 0.219600
309 VDD VDD:310 0.157900
310 VDD VDD:311 0.142400
311 VDD VDD:312 0.145400
312 VDD VDD:313 0.148400
313 VDD VDD:314 0.151500
314 VDD VDD:315 0.155700
315 VDD VDD:316 0.222700
316 VDD VDD:317 0.174500
317 VDD VDD:318 0.177400
318 VDD VDD:319 0.180300
319 VDD VDD:320 0.183200
320 VDD VDD:321 0.186100
321 VDD VDD:322 0.189000
322 VDD VDD:323 0.174600
323 VDD VDD:324 0.153400
324 VDD VDD:325 0.197700
325 VDD VDD:326 0.176200
326 VDD VDD:327 0.133400
327 VDD VDD:328 0.185300
328 VDD VDD:329 0.191900
329 VDD VDD:330 0.173000
330 VDD VDD:331 0.133400
331 VDD VDD:332 0.185300
332 VDD VDD:333 0.191900
333 VDD VDD:334 0.173000
334 VDD VDD:335 0.083900
335 VDD VDD:336 0.254700
336 VDD VDD:337 0.227300
337 VDD VDD:338 0.231700
338 VDD VDD:339 0.120600
339 VDD VDD:340 0.184300
340 VDD VDD:341 0.089600
341 VDD VDD:342 0.173500
342 VDD VDD:343 0.095000
343 VDD VDD:344 0.079000
344 VDD VDD:345 0.294300
345 VDD VDD:346 0.228300
346 VDD VDD:347 0.121100
347 VDD VDD:348 0.233100
348 VDD VDD:349 0.091700
349 VDD VDD:350 0.184800
350 VDD VDD:351 0.173700
351 VDD VDD:352 0.097000
352 VDD VDD:353 0.079400
353 VDD VDD:354 0.296000
354 VDD VDD:355 0.256400
355 VDD VDD:356 0.298300
356 VDD VDD:357 0.258800
357 VDD VDD:358 0.235200
358 VDD VDD:359 0.099800
359 VDD VDD:360 0.080100
360 VDD VDD:361 0.121900
361 VDD VDD:362 0.229700
362 VDD VDD:363 0.094600
363 VDD VDD:364 0.174100
364 VDD VDD:365 0.185500
365 VDD VDD:366 0.098200
366 VDD VDD:367 0.186400
367 VDD VDD:368 0.301300
368 VDD VDD:369 0.231600
369 VDD VDD:370 0.081200
370 VDD VDD:371 0.103300
371 VDD VDD:372 0.237700
372 VDD VDD:373 0.261800
373 VDD VDD:374 0.123100
374 VDD VDD:375 0.174600
375 VDD VDD:376 0.101700
376 VDD VDD:377 0.187400
377 VDD VDD:378 0.175100
378 VDD VDD:379 0.264700
379 VDD VDD:380 0.233400
380 VDD VDD:381 0.082300
381 VDD VDD:382 0.240300
382 VDD VDD:383 0.106700
383 VDD VDD:384 0.304100
384 VDD VDD:385 0.124300
385 VDD VDD:386 0.047700
386 VDD VDD:387 0.048300
387 VDD VDD:388 0.250800
388 VDD VDD:389 0.192500
389 VDD VDD:390 0.209300
390 VDD VDD:391 0.075600
391 VDD VDD:392 0.020300
392 VDD VDD:393 0.111400
393 VDD VDD:394 0.079700
394 VDD VDD:395 0.205100
395 VDD VDD:396 0.190200
396 VDD VDD:397 0.246700
397 VDD VDD:398 0.107200
398 VDD VDD:399 0.024200
399 VDD VDD:400 0.041600
400 VDD VDD:401 0.040800
401 VDD VDD:402 0.041200
402 VDD VDD:403 0.040600
403 VDD VDD:404 0.074700
404 VDD VDD:405 0.103200
405 VDD VDD:406 0.216000
406 VDD VDD:407 0.115200
407 VDD VDD:408 0.180500
408 VDD VDD:409 0.220600
409 VDD VDD:410 0.107600
410 VDD VDD:411 0.184800
411 VDD VDD:412 0.079200
412 VDD VDD:413 0.118800
413 VDD VDD:414 0.221000
414 VDD VDD:415 0.108000
415 VDD VDD:416 0.221000
416 VDD VDD:417 0.108000
417 VDD VDD:418 0.217300
418 VDD VDD:419 0.104400
419 VDD VDD:420 0.156600
420 VDD VDD:421 0.156600
421 VDD VDD:422 0.158300
422 VDD VDD:423 0.160100
423 VDD VDD:424 0.199200
424 VDD VDD:425 0.169500
425 VDD VDD:426 0.173600
426 VDD VDD:427 0.208800
427 VDD VDD:428 0.165600
428 VDD VDD:429 0.213700
429 VDD VDD:430 0.171600
430 VDD VDD:431 0.175800
431 VDD VDD:432 0.216300
432 VDD VDD:433 0.167600
433 VDD VDD:434 0.162000
434 VDD VDD:435 0.211300
435 VDD VDD:436 0.204200
436 VDD VDD:437 0.073600
437 VDD VDD:438 0.201600
438 VDD VDD:439 0.216000
439 VDD VDD:440 0.198400
440 VDD VDD:441 0.072600
441 VDD VDD:442 0.073000
442 VDD VDD:443 0.139500
443 VDD VDD:444 0.141700
444 VDD VDD:445 0.186100
445 VDD VDD:446 0.143900
446 VDD VDD:447 0.186900
447 VDD VDD:448 0.208000
448 VDD VDD:449 0.204800
449 VDD VDD:450 0.146100
450 VDD VDD:451 0.148400
451 VDD VDD:452 0.072300
452 VDD VDD:453 0.175600
453 VDD VDD:454 0.172800
454 VDD VDD:455 0.173000
455 VDD VDD:456 0.169800
456 VDD VDD:457 0.195200
457 VDD VDD:458 0.075200
458 VDD VDD:459 0.074300
459 VDD VDD:460 0.150700
460 VDD VDD:461 0.192000
461 VDD VDD:462 0.154500
462 VDD VDD:463 0.100000
463 VDD VDD:464 0.051900
464 VDD VDD:465 0.226700
465 VDD VDD:466 0.212900
466 VDD VDD:467 0.208600
467 VDD VDD:468 0.177600
468 VDD VDD:469 0.111000
469 VDD VDD:470 0.071500
470 VDD VDD:471 0.112700
471 VDD VDD:472 0.154500
472 VDD VDD:473 0.100000
473 VDD VDD:474 0.051900
474 VDD VDD:475 0.226700
475 VDD VDD:476 0.212900
476 VDD VDD:477 0.208600
477 VDD VDD:478 0.177600
478 VDD VDD:479 0.111000
479 VDD VDD:480 0.071500
480 VDD VDD:481 0.112700
481 VDD VDD:482 0.113200
482 VDD VDD:483 0.055000
483 VDD VDD:484 0.224200
484 VDD VDD:485 0.211800
485 VDD VDD:486 0.116500
486 VDD VDD:487 0.216300
487 VDD VDD:488 0.220700
488 VDD VDD:489 0.059400
489 VDD VDD:490 0.094200
490 VDD VDD:491 0.198500
491 VDD VDD:492 0.128200
492 VDD VDD:493 0.209900
493 VDD VDD:494 0.130800
494 VDD VDD:495 0.144300
495 VDD VDD:496 0.122500
496 VDD VDD:497 0.235600
497 VDD VDD:498 0.231300
498 VDD VDD:499 0.074000
499 VDD VDD:500 0.162200
500 VDD VDD:501 0.170800
501 VDD VDD:502 0.181900
502 VDD VDD:503 0.225900
503 VDD VDD:504 0.244100
504 VDD VDD:505 0.248400
505 VDD VDD:506 0.210500
506 VDD VDD:507 0.141700
507 VDD VDD:508 0.200800
508 VDD VDD:509 0.086600
509 VDD VDD:510 0.126600
510 VDD VDD:511 0.117000
511 VDD VDD:512 0.230100
512 VDD VDD:513 0.140200
513 VDD VDD:514 0.123600
514 VDD VDD:515 0.146900
515 VDD VDD:516 0.107000
516 VDD VDD:517 0.213500
517 VDD VDD:518 0.035600
518 VDD VDD:519 0.068800
519 VDD VDD:520 0.135100
520 VDD VDD:521 0.088800
521 VDD VDD:522 0.204600
522 VDD VDD:523 0.138300
523 VDD VDD:524 0.193600
524 VDD VDD:525 0.086300
525 VDD VDD:526 0.225900
526 VDD VDD:527 0.244100
527 VDD VDD:528 0.248400
528 VDD VDD:529 0.210500
529 VDD VDD:530 0.141700
530 VDD VDD:531 0.200800
531 VDD VDD:532 0.086600
532 VDD VDD:533 0.126600
533 VDD VDD:534 0.117000
534 VDD VDD:535 0.230100
535 VDD VDD:536 0.140200
536 VDD VDD:537 0.123600
537 VDD VDD:538 0.146900
538 VDD VDD:539 0.107000
539 VDD VDD:540 0.213500
540 VDD VDD:541 0.035600
541 VDD VDD:542 0.068800
542 VDD VDD:543 0.135100
543 VDD VDD:544 0.088800
544 VDD VDD:545 0.204600
545 VDD VDD:546 0.138300
546 VDD VDD:547 0.193600
547 VDD VDD:548 0.086300
548 VDD VDD:549 0.174400
549 VDD VDD:550 0.160500
550 VDD VDD:551 0.179000
551 VDD VDD:552 0.177600
552 VDD VDD:553 0.256100
553 VDD VDD:554 0.159100
554 VDD VDD:555 0.201300
555 VDD VDD:556 0.176400
556 VDD VDD:557 0.136300
557 VDD VDD:558 0.136500
558 VDD VDD:559 0.137000
559 VDD VDD:560 0.174200
560 VDD VDD:561 0.107400
561 VDD VDD:562 0.137000
562 VDD VDD:563 0.174200
563 VDD VDD:564 0.107400
564 VDD VDD:565 0.171000
565 VDD VDD:566 0.142300
566 VDD VDD:567 0.171000
567 VDD VDD:568 0.147700
568 VDD VDD:569 0.194100
569 VDD VDD:570 0.161600
570 VDD VDD:571 0.107300
571 VDD VDD:572 0.267300
572 VDD VDD:573 0.027900
573 VDD VDD:574 0.029700
574 VDD VDD:575 0.032100
575 VDD VDD:576 0.026100
576 VDD VDD:577 0.187600
577 VDD VDD:578 0.024300
578 VDD VDD:579 0.035100
579 VDD VDD:580 0.202200
580 VDD VDD:581 0.026700
581 VDD VDD:582 0.207600
582 VDD VDD:583 0.104300
583 VDD VDD:584 0.243600
584 VDD VDD:585 0.082200
585 VDD VDD:586 0.187600
586 VDD VDD:587 0.024300
587 VDD VDD:588 0.035100
588 VDD VDD:589 0.202200
589 VDD VDD:590 0.026700
590 VDD VDD:591 0.207600
591 VDD VDD:592 0.104300
592 VDD VDD:593 0.243600
593 VDD VDD:594 0.082200
594 VDD VDD:595 0.137000
595 VDD VDD:596 0.139300
596 VDD VDD:597 0.166000
597 VDD VDD:598 0.157900
598 VDD VDD:599 0.155100
599 VDD VDD:600 0.207400
600 VDD VDD:601 0.152300
601 VDD VDD:602 0.149500
602 VDD VDD:603 0.146900
603 VDD VDD:604 0.141700
604 VDD VDD:605 0.208800
605 VDD VDD:606 0.207800
606 VDD VDD:607 0.208200
607 VDD VDD:608 0.169000
608 VDD VDD:609 0.207000
609 VDD VDD:610 0.144300
610 VDD VDD:611 0.207200
611 VDD VDD:612 0.209300
612 VDD VDD:613 0.160800
613 VDD VDD:614 0.172100
614 VDD VDD:615 0.206800
615 VDD VDD:616 0.246900
616 VDD VDD:617 0.178000
617 VDD VDD:618 0.219800
618 VDD VDD:619 0.141400
619 VDD VDD:620 0.135900
620 VDD VDD:621 0.201200
621 VDD VDD:622 0.253400
622 VDD VDD:623 0.090800
623 VDD VDD:624 0.160200
624 VDD VDD:625 0.136000
625 VDD VDD:626 0.085500
626 VDD VDD:627 0.087100
627 VDD VDD:628 0.157700
628 VDD VDD:629 0.183700
629 VDD VDD:630 0.178000
630 VDD VDD:631 0.204300
631 VDD VDD:632 0.227500
632 VDD VDD:633 0.229700
633 VDD VDD:634 0.219800
634 VDD VDD:635 0.190500
635 VDD VDD:636 0.141400
636 VDD VDD:637 0.135900
637 VDD VDD:638 0.078600
638 VDD VDD:639 0.201200
639 VDD VDD:640 0.173300
640 VDD VDD:641 0.253400
641 VDD VDD:642 0.090800
642 VDD VDD:643 0.160200
643 VDD VDD:644 0.092200
644 VDD VDD:645 0.136000
645 VDD VDD:646 0.086800
646 VDD VDD:647 0.119900
647 VDD VDD:648 0.225900
648 VDD VDD:649 0.085500
649 VDD VDD:650 0.253200
650 VDD VDD:651 0.040700
651 VDD VDD:652 0.114600
652 VDD VDD:653 0.121900
653 VDD VDD:654 0.087100
654 VDD VDD:655 0.168300
655 VDD VDD:656 0.292000
656 VDD VDD:657 0.191900
657 VDD VDD:658 0.157700
658 VDD VDD:659 0.165200
659 VDD VDD:660 0.164400
660 VDD VDD:661 0.187200
661 VDD VDD:662 0.252400
662 VDD VDD:663 0.154700
663 VDD VDD:664 0.165900
664 VDD VDD:665 0.167600
665 VDD VDD:666 0.183600
666 VDD VDD:667 0.128200
667 VDD VDD:668 0.186700
668 VDD VDD:669 0.189700
669 VDD VDD:670 0.192800
670 VDD VDD:671 0.184600
671 VDD VDD:672 0.148300
672 VDD VDD:673 0.145100
673 VDD VDD:674 0.195900
674 VDD VDD:675 0.141900
675 VDD VDD:676 0.138700
676 VDD VDD:677 0.198900
677 VDD VDD:678 0.208900
678 VDD VDD:679 0.212000
679 VDD VDD:680 0.215100
680 VDD VDD:681 0.224400
681 VDD VDD:682 0.218200
682 VDD VDD:683 0.176500
683 VDD VDD:684 0.177200
684 VDD VDD:685 0.221300
685 VDD VDD:686 0.092600
686 VDD VDD:687 0.089800
687 VDD VDD:688 0.197800
688 VDD VDD:689 0.194900
689 VDD VDD:690 0.204300
690 VDD VDD:691 0.207400
691 VDD VDD:692 0.210100
692 VDD VDD:693 0.192000
693 VDD VDD:694 0.189000
694 VDD VDD:695 0.163700
695 VDD VDD:696 0.125100
696 VDD VDD:697 0.186200
697 VDD VDD:698 0.183300
698 VDD VDD:699 0.173900
699 VDD VDD:700 0.163000
700 VDD VDD:701 0.171100
701 VDD VDD:702 0.275200
702 VDD VDD:703 0.272400
703 VDD VDD:704 0.151500
704 VDD VDD:705 0.190400
705 VDD VDD:706 0.195400
706 VDD VDD:707 0.264100
707 VDD VDD:708 0.145400
708 VDD VDD:709 0.240000
709 VDD VDD:710 0.215100
710 VDD VDD:711 0.226800
711 VDD VDD:712 0.214200
712 VDD VDD:713 0.213400
713 VDD VDD:714 0.223700
714 VDD VDD:715 0.220600
715 VDD VDD:716 0.217500
716 VDD VDD:717 0.169100
717 VDD VDD:718 0.260300
718 VDD VDD:719 0.234800
719 VDD VDD:720 0.167900
720 VDD VDD:721 0.139600
721 VDD VDD:722 0.236500
722 VDD VDD:723 0.167200
723 VDD VDD:724 0.163800
724 VDD VDD:725 0.165300
725 VDD VDD:726 0.163500
726 VDD VDD:727 0.238200
727 VDD VDD:728 0.206400
728 VDD VDD:729 0.261000
729 VDD VDD:730 0.143200
730 VDD VDD:731 0.177800
731 VDD VDD:732 0.223900
732 VDD VDD:733 0.233100
733 VDD VDD:734 0.229900
734 VDD VDD:735 0.196900
735 VDD VDD:736 0.161800
736 VDD VDD:737 0.136900
737 VDD VDD:738 0.261000
738 VDD VDD:739 0.143200
739 VDD VDD:740 0.177800
740 VDD VDD:741 0.223900
741 VDD VDD:742 0.171100
742 VDD VDD:743 0.233100
743 VDD VDD:744 0.262300
744 VDD VDD:745 0.229900
745 VDD VDD:746 0.196900
746 VDD VDD:747 0.161800
747 VDD VDD:748 0.136900
748 VDD VDD:749 0.245000
749 VDD VDD:750 0.044900
750 VDD VDD:751 0.243500
751 VDD VDD:752 0.174800
752 VDD VDD:753 0.165700
753 VDD VDD:754 0.192500
754 VDD VDD:755 0.153600
755 VDD VDD:756 0.066800
756 VDD VDD:757 0.138300
757 VDD VDD:758 0.214800
758 VDD VDD:759 0.188100
759 VDD VDD:760 0.207300
760 VDD VDD:761 0.203500
761 VDD VDD:762 0.240400
762 VDD VDD:763 0.240500
763 VDD VDD:764 0.201800
764 VDD VDD:765 0.211900
765 VDD VDD:766 0.166300
766 VDD VDD:767 0.248100
767 VDD VDD:768 0.198900
768 VDD VDD:769 0.188800
769 VDD VDD:770 0.199300
770 VDD VDD:771 0.187800
771 VDD VDD:772 0.146100
772 VDD VDD:773 0.109800
773 VDD VDD:774 0.171100
774 VDD VDD:775 0.111700
775 VDD VDD:776 0.072100
776 VDD VDD:777 0.137400
777 VDD VDD:778 0.116000
778 VDD VDD:779 0.310700
779 VDD VDD:780 0.093400
780 VDD VDD:781 0.190800
781 VDD VDD:782 0.161800
782 VDD VDD:783 0.218100
783 VDD VDD:784 0.176200
784 VDD VDD:785 0.201500
785 VDD VDD:786 0.182900
786 VDD VDD:787 0.144600
787 VDD VDD:788 0.143600
788 VDD VDD:789 0.140500
789 VDD VDD:790 0.076900
790 VDD VDD:791 0.264500
791 VDD VDD:792 0.235300
792 VDD VDD:793 0.148500
793 VDD VDD:794 0.170000
794 VDD VDD:795 0.240400
795 VDD VDD:796 0.240500
796 VDD VDD:797 0.201800
797 VDD VDD:798 0.211900
798 VDD VDD:799 0.166300
799 VDD VDD:800 0.248100
800 VDD VDD:801 0.198900
801 VDD VDD:802 0.188800
802 VDD VDD:803 0.199300
803 VDD VDD:804 0.187800
804 VDD VDD:805 0.146100
805 VDD VDD:806 0.109800
806 VDD VDD:807 0.171100
807 VDD VDD:808 0.111700
808 VDD VDD:809 0.072100
809 VDD VDD:810 0.137400
810 VDD VDD:811 0.116000
811 VDD VDD:812 0.310700
812 VDD VDD:813 0.093400
813 VDD VDD:814 0.190800
814 VDD VDD:815 0.161800
815 VDD VDD:816 0.218100
816 VDD VDD:817 0.176200
817 VDD VDD:818 0.201500
818 VDD VDD:819 0.182900
819 VDD VDD:820 0.144600
820 VDD VDD:821 0.143600
821 VDD VDD:822 0.140500
822 VDD VDD:823 0.076900
823 VDD VDD:824 0.264500
824 VDD VDD:825 0.235300
825 VDD VDD:826 0.148500
826 VDD VDD:827 0.170000
827 VDD VDD:828 0.112100
828 VDD VDD:829 0.074500
829 VDD VDD:830 0.267200
830 VDD VDD:831 0.143100
831 VDD VDD:832 0.250900
832 VDD VDD:833 0.211200
833 VDD VDD:834 0.144300
834 VDD VDD:835 0.166700
835 VDD VDD:836 0.142500
836 VDD VDD:837 0.198600
837 VDD VDD:838 0.240200
838 VDD VDD:839 0.145900
839 VDD VDD:840 0.163400
840 VDD VDD:841 0.198900
841 VDD VDD:842 0.193000
842 VDD VDD:843 0.212000
843 VDD VDD:844 0.313100
844 VDD VDD:845 0.076200
845 VDD VDD:846 0.185400
846 VDD VDD:847 0.201600
847 VDD VDD:848 0.096500
848 VDD VDD:849 0.148300
849 VDD VDD:850 0.201500
850 VDD VDD:851 0.243200
851 VDD VDD:852 0.214500
852 VDD VDD:853 0.180100
853 VDD VDD:854 0.108600
854 VDD VDD:855 0.172900
855 VDD VDD:856 0.153000
856 VDD VDD:857 0.178400
857 VDD VDD:858 0.112800
858 VDD VDD:859 0.232100
859 VDD VDD:860 0.168000
860 VDD VDD:861 0.112100
861 VDD VDD:862 0.074500
862 VDD VDD:863 0.267200
863 VDD VDD:864 0.143100
864 VDD VDD:865 0.250900
865 VDD VDD:866 0.211200
866 VDD VDD:867 0.144300
867 VDD VDD:868 0.166700
868 VDD VDD:869 0.142500
869 VDD VDD:870 0.198600
870 VDD VDD:871 0.240200
871 VDD VDD:872 0.145900
872 VDD VDD:873 0.163400
873 VDD VDD:874 0.198900
874 VDD VDD:875 0.193000
875 VDD VDD:876 0.212000
876 VDD VDD:877 0.313100
877 VDD VDD:878 0.076200
878 VDD VDD:879 0.185400
879 VDD VDD:880 0.201600
880 VDD VDD:881 0.096500
881 VDD VDD:882 0.148300
882 VDD VDD:883 0.201500
883 VDD VDD:884 0.243200
884 VDD VDD:885 0.214500
885 VDD VDD:886 0.180100
886 VDD VDD:887 0.108600
887 VDD VDD:888 0.172900
888 VDD VDD:889 0.153000
889 VDD VDD:890 0.178400
890 VDD VDD:891 0.112800
891 VDD VDD:892 0.232100
892 VDD VDD:893 0.168000
893 VDD VDD:894 0.261600
894 VDD VDD:895 0.075600
895 VDD VDD:896 0.140600
896 VDD VDD:897 0.163400
897 VDD VDD:898 0.020000
898 VDD VDD:899 0.039000
899 VDD VDD:900 0.143900
900 VDD VDD:901 0.072800
901 VDD VDD:902 0.147200
902 VDD VDD:903 0.200500
903 VDD VDD:904 0.222600
904 VDD VDD:905 0.035900
905 VDD VDD:906 0.032800
906 VDD VDD:907 0.029800
907 VDD VDD:908 0.027000
908 VDD VDD:909 0.127500
909 VDD VDD:910 0.157400
910 VDD VDD:911 0.141100
911 VDD VDD:912 0.144000
912 VDD VDD:913 0.147000
913 VDD VDD:914 0.149900
914 VDD VDD:915 0.160400
915 VDD VDD:916 0.024400
916 VDD VDD:917 0.187300
917 VDD VDD:918 0.131100
918 VDD VDD:919 0.116100
919 VDD VDD:920 0.129500
920 VDD VDD:921 0.205400
921 VDD VDD:922 0.206000
922 VDD VDD:923 0.192000
923 VDD VDD:924 0.202400
924 VDD VDD:925 0.199500
925 VDD VDD:926 0.196600
926 VDD VDD:927 0.128500
927 VDD VDD:928 0.126500
928 VDD VDD:929 0.124500
929 VDD VDD:930 0.193700
930 VDD VDD:931 0.122600
931 VDD VDD:932 0.190900
932 VDD VDD:933 0.205700
933 VDD VDD:934 0.082800
934 VDD VDD:935 0.084100
935 VDD VDD:936 0.137300
936 VDD VDD:937 0.260300
937 VDD VDD:938 0.085500
938 VDD VDD:939 0.087000
939 VDD VDD:940 0.009700
940 VDD VDD:941 0.009100
941 VDD VDD:942 0.009700
942 VDD VDD:943 0.272400
943 VDD VDD:944 0.194400
944 VDD VDD:945 0.011400
945 VDD VDD:946 0.018300
946 VDD VDD:947 0.246200
947 VDD VDD:948 0.249800
948 VDD VDD:949 0.142600
949 VDD VDD:950 0.145800
950 VDD VDD:951 0.149100
951 VDD VDD:952 0.206800
952 VDD VDD:953 0.250400
953 VDD VDD:954 0.152400
954 VDD VDD:955 0.154800
955 VDD VDD:956 0.186500
956 VDD VDD:957 0.187400
957 VDD VDD:958 0.186200
958 VDD VDD:959 0.185100
959 VDD VDD:960 0.184000
960 VDD VDD:961 0.181900
961 VDD VDD:962 0.178700
962 VDD VDD:963 0.175500
963 VDD VDD:964 0.129400
964 VDD VDD:965 0.131200
965 VDD VDD:966 0.172300
966 VDD VDD:967 0.156200
967 VDD VDD:968 0.132900
968 VDD VDD:969 0.157600
969 VDD VDD:970 0.159100
970 VDD VDD:971 0.134300
971 VDD VDD:972 0.132700
972 VDD VDD:973 0.201500
973 VDD VDD:974 0.189600
974 VDD VDD:975 0.119000
975 VDD VDD:976 0.167400
976 VDD VDD:977 0.164700
977 VDD VDD:978 0.236000
978 VDD VDD:979 0.305100
979 VDD VDD:980 0.042200
980 VDD VDD:981 0.022000
981 VDD VDD:982 0.120800
982 VDD VDD:983 0.269700
983 VDD VDD:984 0.208600
984 VDD VDD:985 0.242700
985 VDD VDD:986 0.198700
986 VDD VDD:987 0.302200
987 VDD VDD:988 0.247100
988 VDD VDD:989 0.246300
989 VDD VDD:990 0.185200
990 VDD VDD:991 0.115000
991 VDD VDD:992 0.220400
992 VDD VDD:993 0.232600
993 VDD VDD:994 0.131000
994 VDD VDD:995 0.259400
995 VDD VDD:996 0.078400
996 VDD VDD:997 0.088600
997 VDD VDD:998 0.224800
998 VDD VDD:999 0.307900
999 VDD VDD:1000 0.139300
1000 VDD VDD:1001 0.013900
1001 VDD VDD:1002 0.128100
1002 VDD VDD:1003 0.127700
1003 VDD VDD:1004 0.263800
1004 VDD VDD:1005 0.117300
1005 VDD VDD:1006 0.239300
1006 VDD VDD:1007 0.170000
1007 VDD VDD:1008 0.187800
1008 VDD VDD:1009 0.202300
1009 VDD VDD:1010 0.134900
1010 VDD VDD:1011 0.185200
1011 VDD VDD:1012 0.152900
1012 VDD VDD:1013 0.154400
1013 VDD VDD:1014 0.134000
1014 VDD VDD:1015 0.249700
1015 VDD VDD:1016 0.238500
1016 VDD VDD:1017 0.153500
1017 VDD VDD:1018 0.253700
1018 VDD VDD:1019 0.208300
1019 VDD VDD:1020 0.253300
1020 VDD VDD:1021 0.188700
1021 VDD VDD:1022 0.130600
1022 VDD VDD:1023 0.275200
1023 VDD VDD:1024 0.203300
1024 VDD VDD:1025 0.196800
1025 VDD VDD:1026 0.078400
1026 VDD VDD:1027 0.088600
1027 VDD VDD:1028 0.231400
1028 VDD VDD:1029 0.224800
1029 VDD VDD:1030 0.307900
1030 VDD VDD:1031 0.125700
1031 VDD VDD:1032 0.139300
1032 VDD VDD:1033 0.013900
1033 VDD VDD:1034 0.128100
1034 VDD VDD:1035 0.127700
1035 VDD VDD:1036 0.246300
1036 VDD VDD:1037 0.263800
1037 VDD VDD:1038 0.125700
1038 VDD VDD:1039 0.087000
1039 VDD VDD:1040 0.117300
1040 VDD VDD:1041 0.235600
1041 VDD VDD:1042 0.239300
1042 VDD VDD:1043 0.049800
1043 VDD VDD:1044 0.170000
1044 VDD VDD:1045 0.193700
1045 VDD VDD:1046 0.302300
1046 VDD VDD:1047 0.187800
1047 VDD VDD:1048 0.202300
1048 VDD VDD:1049 0.134900
1049 VDD VDD:1050 0.045400
1050 VDD VDD:1051 0.261600
1051 VDD VDD:1052 0.209200
1052 VDD VDD:1053 0.058800
1053 VDD VDD:1054 0.185200
1054 VDD VDD:1055 0.259100
1055 VDD VDD:1056 0.152900
1056 VDD VDD:1057 0.283800
1057 VDD VDD:1058 0.250400
1058 VDD VDD:1059 0.049400
1059 VDD VDD:1060 0.154400
1060 VDD VDD:1061 0.134000
1061 VDD VDD:1062 0.270500
1062 VDD VDD:1063 0.249700
1063 VDD VDD:1064 0.238500
1064 VDD VDD:1065 0.176900
1065 VDD VDD:1066 0.216400
1066 VDD VDD:1067 0.153500
1067 VDD VDD:1068 0.054200
1068 VDD VDD:1069 0.253700
1069 VDD VDD:1070 0.208300
1070 VDD VDD:1071 0.146200
1071 VDD VDD:1072 0.208300
1072 VDD VDD:1073 0.253300
1073 VDD VDD:1074 0.188700
1074 VDD VDD:1075 0.130600
1075 VDD VDD:1076 0.275200
1076 VDD VDD:1077 0.172300
1077 VDD VDD:1078 0.232100
1078 VDD VDD:1079 0.203300
1079 VDD VDD:1080 0.196800
1080 VDD VDD:1081 0.194200
1081 VDD VDD:1082 0.077600
1082 VDD VDD:1083 0.253300
1083 VDD VDD:1084 0.250200
1084 VDD VDD:1085 0.054800
1085 VDD VDD:1086 0.240500
1086 VDD VDD:1087 0.224300
1087 VDD VDD:1088 0.267600
1088 VDD VDD:1089 0.233400
1089 VDD VDD:1090 0.046000
1090 VDD VDD:1091 0.281800
1091 VDD VDD:1092 0.170200
1092 VDD VDD:1093 0.191800
1093 VDD VDD:1094 0.244300
1094 VDD VDD:1095 0.281600
1095 VDD VDD:1096 0.313900
1096 VDD VDD:1097 0.114700
1097 VDD VDD:1098 0.140800
1098 VDD VDD:1099 0.311100
1099 VDD VDD:1100 0.192500
1100 VDD VDD:1101 0.168400
1101 VDD VDD:1102 0.205100
1102 VDD VDD:1103 0.260600
1103 VDD VDD:1104 0.157800
1104 VDD VDD:1105 0.183000
1105 VDD VDD:1106 0.057700
1106 VDD VDD:1107 0.170700
1107 VDD VDD:1108 0.310600
1108 VDD VDD:1109 0.246500
1109 VDD VDD:1110 0.184400
1110 VDD VDD:1111 0.161700
1111 VDD VDD:1112 0.284900
1112 VDD VDD:1113 0.228400
1113 VDD VDD:1114 0.167700
1114 VDD VDD:1115 0.236300
1115 VDD VDD:1116 0.238100
1116 VDD VDD:1117 0.277900
1117 VDD VDD:1118 0.195200
1118 VDD VDD:1119 0.141100
1119 VDD VDD:1120 0.188300
1120 VDD VDD:1121 0.205500
1121 VDD VDD:1122 0.046800
1122 VDD VDD:1123 0.114200
1123 VDD VDD:1124 0.307200
1124 VDD VDD:1125 0.263600
1125 VDD VDD:1126 0.264000
1126 VDD VDD:1127 0.128100
1127 VDD VDD:1128 0.060000
1128 VDD VDD:1129 0.079400
1129 VDD VDD:1130 0.232500
1130 VDD VDD:1131 0.128100
1131 VDD VDD:1132 0.060000
1132 VDD VDD:1133 0.188000
1133 VDD VDD:1134 0.047900
1134 VDD VDD:1135 0.122200
1135 VDD VDD:1136 0.146000
1136 VDD VDD:1137 0.137900
1137 VDD VDD:1138 0.213900
1138 VDD VDD:1139 0.262900
1139 VDD VDD:1140 0.079400
1140 VDD VDD:1141 0.255000
1141 VDD VDD:1142 0.232500
1142 VDD VDD:1143 0.113400
1143 VDD VDD:1144 0.183800
1144 VDD VDD:1145 0.257000
1145 VDD VDD:1146 0.287100
1146 VDD VDD:1147 0.283700
1147 VDD VDD:1148 0.057500
1148 VDD VDD:1149 0.252000
1149 VDD VDD:1150 0.156300
1150 VDD VDD:1151 0.193900
1151 VDD VDD:1152 0.303400
1152 VDD VDD:1153 0.183800
1153 VDD VDD:1154 0.227000
1154 VDD VDD:1155 0.210100
1155 VDD VDD:1156 0.214600
1156 VDD VDD:1157 0.242000
1157 VDD VDD:1158 0.260100
1158 VDD VDD:1159 0.293700
1159 VDD VDD:1160 0.250800
1160 VDD VDD:1161 0.145800
1161 VDD VDD:1162 0.165600
1162 VDD VDD:1163 0.113400
1163 VDD VDD:1164 0.183800
1164 VDD VDD:1165 0.257000
1165 VDD VDD:1166 0.287100
1166 VDD VDD:1167 0.283700
1167 VDD VDD:1168 0.057500
1168 VDD VDD:1169 0.252000
1169 VDD VDD:1170 0.156300
1170 VDD VDD:1171 0.193900
1171 VDD VDD:1172 0.303400
1172 VDD VDD:1173 0.183800
1173 VDD VDD:1174 0.227000
1174 VDD VDD:1175 0.210100
1175 VDD VDD:1176 0.214600
1176 VDD VDD:1177 0.242000
1177 VDD VDD:1178 0.260100
1178 VDD VDD:1179 0.293700
1179 VDD VDD:1180 0.250800
1180 VDD VDD:1181 0.145800
1181 VDD VDD:1182 0.165600
1182 VDD VDD:1183 0.023700
1183 VDD VDD:1184 0.213500
1184 VDD VDD:1185 0.201300
1185 VDD VDD:1186 0.139300
1186 VDD VDD:1187 0.261100
1187 VDD VDD:1188 0.125900
1188 VDD VDD:1189 0.214300
1189 VDD VDD:1190 0.278700
1190 VDD VDD:1191 0.110800
1191 VDD VDD:1192 0.280500
1192 VDD VDD:1193 0.159900
1193 VDD VDD:1194 0.105000
1194 VDD VDD:1195 0.100900
1195 VDD VDD:1196 0.315800
1196 VDD VDD:1197 0.088100
1197 VDD VDD:1198 0.277800
1198 VDD VDD:1199 0.264200
1199 VDD VDD:1200 0.076500
1200 VDD VDD:1201 0.109700
1201 VDD VDD:1202 0.120700
1202 VDD VDD:1203 0.268200
1203 VDD VDD:1204 0.159300
1204 VDD VDD:1205 0.054600
1205 VDD VDD:1206 0.055400
1206 VDD VDD:1207 0.241000
1207 VDD VDD:1208 0.226000
1208 VDD VDD:1209 0.172300
1209 VDD VDD:1210 0.150300
1210 VDD VDD:1211 0.182800
1211 VDD VDD:1212 0.196500
1212 VDD VDD:1213 0.251700
1213 VDD VDD:1214 0.228300
1214 VDD VDD:1215 0.168800
1215 VDD VDD:1216 0.182800
1216 VDD VDD:1217 0.197700
1217 VDD VDD:1218 0.239600
1218 VDD VDD:1219 0.056800
1219 VDD VDD:1220 0.288000
1220 VDD VDD:1221 0.243600
1221 VDD VDD:1222 0.112400
1222 VDD VDD:1223 0.055700
1223 VDD VDD:1224 0.150600
1224 VDD VDD:1225 0.274600
1225 VDD VDD:1226 0.073700
1226 VDD VDD:1227 0.104500
1227 VDD VDD:1228 0.260900
1228 VDD VDD:1229 0.273600
1229 VDD VDD:1230 0.197600
1230 VDD VDD:1231 0.222900
1231 VDD VDD:1232 0.105700
1232 VDD VDD:1233 0.157200
1233 VDD VDD:1234 0.117000
1234 VDD VDD:1235 0.237100
1235 VDD VDD:1236 0.186200
1236 VDD VDD:1237 0.261300
1237 VDD VDD:1238 0.254800
1238 VDD VDD:1239 0.024200
1239 VDD VDD:1240 0.169400
1240 VDD VDD:1241 0.199300
1241 VDD VDD:1242 0.171100
1242 VDD VDD:1243 0.052600
1243 VDD VDD:1244 0.267100
1244 VDD VDD:1245 0.058500
1245 VDD VDD:1246 0.312200
1246 VDD VDD:1247 0.276300
1247 VDD VDD:1248 0.135300
1248 VDD VDD:1249 0.108300
1249 VDD VDD:1250 0.203200
1250 VDD VDD:1251 0.210100
1251 VDD VDD:1252 0.215800
1252 VDD VDD:1253 0.158100
1253 VDD VDD:1254 0.182600
1254 VDD VDD:1255 0.124700
1255 VDD VDD:1256 0.291300
1256 VDD VDD:1257 0.231700
1257 VDD VDD:1258 0.089100
1258 VDD VDD:1259 0.261300
1259 VDD VDD:1260 0.200900
1260 VDD VDD:1261 0.293200
1261 VDD VDD:1262 0.286800
1262 VDD VDD:1263 0.274000
1263 VDD VDD:1264 0.072200
1264 VDD VDD:1265 0.133000
1265 VDD VDD:1266 0.164000
1266 VDD VDD:1267 0.305100
1267 VDD VDD:1268 0.310100
1268 VDD VDD:1269 0.114900
1269 VDD VDD:1270 0.170500
1270 VDD VDD:1271 0.205900
1271 VDD VDD:1272 0.172000
1272 VDD VDD:1273 0.260900
1273 VDD VDD:1274 0.060700
1274 VDD VDD:1275 0.233600
1275 VDD VDD:1276 0.185900
1276 VDD VDD:1277 0.106600
1277 VDD VDD:1278 0.185200
1278 VDD VDD:1279 0.236900
1279 VDD VDD:1280 0.216800
1280 VDD VDD:1281 0.272200
1281 VDD VDD:1282 0.266100
1282 VDD VDD:1283 0.024800
1283 VDD VDD:1284 0.275700
1284 VDD VDD:1285 0.188200
1285 VDD VDD:1286 0.208200
1286 VDD VDD:1287 0.256400
1287 VDD VDD:1288 0.235000
1288 VDD VDD:1289 0.259600
1289 VDD VDD:1290 0.113900
1290 VDD VDD:1291 0.247900
1291 VDD VDD:1292 0.245800
1292 VDD VDD:1293 0.113900
1293 VDD VDD:1294 0.141400
1294 VDD VDD:1295 0.266600
1295 VDD VDD:1296 0.050300
1296 VDD VDD:1297 0.169900
1297 VDD VDD:1298 0.155700
1298 VDD VDD:1299 0.261000
1299 VDD VDD:1300 0.089600
1300 VDD VDD:1301 0.197200
1301 VDD VDD:1302 0.182400
1302 VDD VDD:1303 0.157400
1303 VDD VDD:1304 0.106300
1304 VDD VDD:1305 0.197700
1305 VDD VDD:1306 0.271200
1306 VDD VDD:1307 0.055900
1307 VDD VDD:1308 0.150700
1308 VDD VDD:1309 0.106900
1309 VDD VDD:1310 0.230700
1310 VDD VDD:1311 0.047600
1311 VDD VDD:1312 0.308800
1312 VDD VDD:1313 0.166400
1313 VDD VDD:1314 0.221200
1314 VDD VDD:1315 0.237900
1315 VDD VDD:1316 0.124000
1316 VDD VDD:1317 0.204300
1317 VDD VDD:1318 0.241500
1318 VDD VDD:1319 0.163600
1319 VDD VDD:1320 0.304800
1320 VDD VDD:1321 0.251000
1321 VDD VDD:1322 0.236000
1322 VDD VDD:1323 0.256300
1323 VDD VDD:1324 0.155900
1324 VDD VDD:1325 0.265900
1325 VDD VDD:1326 0.151100
1326 VDD VDD:1327 0.250800
1327 VDD VDD:1328 0.107800
1328 VDD VDD:1329 0.206800
1329 VDD VDD:1330 0.056800
1330 VDD VDD:1331 0.305400
1331 VDD VDD:1332 0.263200
1332 VDD VDD:1333 0.171100
1333 VDD VDD:1334 0.152300
1334 VDD VDD:1335 0.045000
1335 VDD VDD:1336 0.113400
1336 VDD VDD:1337 0.217300
1337 VDD VDD:1338 0.117400
1338 VDD VDD:1339 0.197900
1339 VDD VDD:1340 0.230200
1340 VDD VDD:1341 0.255800
1341 VDD VDD:1342 0.260200
1342 VDD VDD:1343 0.090900
1343 VDD VDD:1344 0.026700
1344 VDD VDD:1345 0.192700
1345 VDD VDD:1346 0.270800
1346 VDD VDD:1347 0.270600
1347 VDD VDD:1348 0.234200
1348 VDD VDD:1349 0.111100
1349 VDD VDD:1350 0.180600
1350 VDD VDD:1351 0.122600
1351 VDD VDD:1352 0.182200
1352 VDD VDD:1353 0.265500
1353 VDD VDD:1354 0.238000
1354 VDD VDD:1355 0.068900
1355 VDD VDD:1356 0.065600
1356 VDD VDD:1357 0.261000
1357 VDD VDD:1358 0.206800
1358 VDD VDD:1359 0.266900
1359 VDD VDD:1360 0.187300
1360 VDD VDD:1361 0.174900
1361 VDD VDD:1362 0.203800
1362 VDD VDD:1363 0.219000
1363 VDD VDD:1364 0.300400
1364 VDD VDD:1365 0.297400
1365 VDD VDD:1366 0.110300
1366 VDD VDD:1367 0.169200
1367 VDD VDD:1368 0.268700
1368 VDD VDD:1369 0.127900
1369 VDD VDD:1370 0.204500
1370 VDD VDD:1371 0.201700
1371 VDD VDD:1372 0.169400
1372 VDD VDD:1373 0.291100
1373 VDD VDD:1374 0.142300
1374 VDD VDD:1375 0.049500
1375 VDD VDD:1376 0.103900
1376 VDD VDD:1377 0.188600
1377 VDD VDD:1378 0.201500
1378 VDD VDD:1379 0.297500
1379 VDD VDD:1380 0.293700
1380 VDD VDD:1381 0.124000
1381 VDD VDD:1382 0.077200
1382 VDD VDD:1383 0.133200
1383 VDD VDD:1384 0.190700
1384 VDD VDD:1385 0.187700
1385 VDD VDD:1386 0.253800
1386 VDD VDD:1387 0.200800
1387 VDD VDD:1388 0.172300
1388 VDD VDD:1389 0.133500
1389 VDD VDD:1390 0.141200
1390 VDD VDD:1391 0.263700
1391 VDD VDD:1392 0.128800
1392 VDD VDD:1393 0.261100
1393 VDD VDD:1394 0.103800
1394 VDD VDD:1395 0.107500
1395 VDD VDD:1396 0.125600
1396 VDD VDD:1397 0.204500
1397 VDD VDD:1398 0.207500
1398 VDD VDD:1399 0.207400
1399 VDD VDD:1400 0.130600
1400 VDD VDD:1401 0.100600
1401 VDD VDD:1402 0.136200
1402 VDD VDD:1403 0.253600
1403 VDD VDD:1404 0.204400
1404 VDD VDD:1405 0.232600
1405 VDD VDD:1406 0.121800
1406 VDD VDD:1407 0.065700
1407 VDD VDD:1408 0.062500
1408 VDD VDD:1409 0.113900
1409 VDD VDD:1410 0.142900
1410 VDD VDD:1411 0.083500
1411 VDD VDD:1412 0.080300
1412 VDD VDD:1413 0.182100
1413 VDD VDD:1414 0.085600
1414 VDD VDD:1415 0.082400
1415 VDD VDD:1416 0.203000
1416 VDD VDD:1417 0.218300
1417 VDD VDD:1418 0.206600
1418 VDD VDD:1419 0.215900
1419 VDD VDD:1420 0.205300
1420 VDD VDD:1421 0.121200
1421 VDD VDD:1422 0.198200
1422 VDD VDD:1423 0.119600
1423 VDD VDD:1424 0.118800
1424 VDD VDD:1425 0.227300
1425 VDD VDD:1426 0.150300
1426 VDD VDD:1427 0.102200
1427 VDD VDD:1428 0.206200
1428 VDD VDD:1429 0.264500
1429 VDD VDD:1430 0.177400
1430 VDD VDD:1431 0.207900
1431 VDD VDD:1432 0.162000
1432 VDD VDD:1433 0.057500
1433 VDD VDD:1434 0.155100
1434 VDD VDD:1435 0.239100
1435 VDD VDD:1436 0.253200
1436 VDD VDD:1437 0.262700
1437 VDD VDD:1438 0.265000
1438 VDD VDD:1439 0.113300
1439 VDD VDD:1440 0.051000
1440 VDD VDD:1441 0.252800
1441 VDD VDD:1442 0.041900
1442 VDD VDD:1443 0.243700
1443 VDD VDD:1444 0.151400
1444 VDD VDD:1445 0.240900
1445 VDD VDD:1446 0.108900
1446 VDD VDD:1447 0.237700
1447 VDD VDD:1448 0.208300
1448 VDD VDD:1449 0.207600
1449 VDD VDD:1450 0.234500
1450 VDD VDD:1451 0.171900
1451 VDD VDD:1452 0.262500
1452 VDD VDD:1453 0.222700
1453 VDD VDD:1454 0.219500
1454 VDD VDD:1455 0.240600
1455 VDD VDD:1456 0.302600
1456 VDD VDD:1457 0.091900
1457 VDD VDD:1458 0.028300
1458 VDD VDD:1459 0.267900
1459 VDD VDD:1460 0.245200
1460 VDD VDD:1461 0.242000
1461 VDD VDD:1462 0.195400
1462 VDD VDD:1463 0.199200
1463 VDD VDD:1464 0.215000
1464 VDD VDD:1465 0.273400
1465 VDD VDD:1466 0.299900
1466 VDD VDD:1467 0.067100
1467 VDD VDD:1468 0.131900
1468 VDD VDD:1469 0.238800
1469 VDD VDD:1470 0.302400
1470 VDD VDD:1471 0.068600
1471 VDD VDD:1472 0.139000
1472 VDD VDD:1473 0.176700
1473 VDD VDD:1474 0.265500
1474 VDD VDD:1475 0.124800
1475 VDD VDD:1476 0.149600
1476 VDD VDD:1477 0.142200
1477 VDD VDD:1478 0.143200
1478 VDD VDD:1479 0.223800
1479 VDD VDD:1480 0.110800
1480 VDD VDD:1481 0.220400
1481 VDD VDD:1482 0.113900
1482 VDD VDD:1483 0.201200
1483 VDD VDD:1484 0.168700
1484 VDD VDD:1485 0.148200
1485 VDD VDD:1486 0.197800
1486 VDD VDD:1487 0.227000
1487 VDD VDD:1488 0.135700
1488 VDD VDD:1489 0.121400
1489 VDD VDD:1490 0.097400
1490 VDD VDD:1491 0.221900
1491 VDD VDD:1492 0.262400
1492 VDD VDD:1493 0.302500
1493 VDD VDD:1494 0.212700
1494 VDD VDD:1495 0.209900
1495 VDD VDD:1496 0.065300
1496 VDD VDD:1497 0.265000
1497 VDD VDD:1498 0.172800
1498 VDD VDD:1499 0.110000
1499 VDD VDD:1500 0.113200
1500 VDD VDD:1501 0.198600
1501 VDD VDD:1502 0.259500
1502 VDD VDD:1503 0.208900
1503 VDD VDD:1504 0.174200
1504 VDD VDD:1505 0.224500
1505 VDD VDD:1506 0.198400
1506 VDD VDD:1507 0.093000
1507 VDD VDD:1508 0.261200
1508 VDD VDD:1509 0.175400
1509 VDD VDD:1510 0.296300
1510 VDD VDD:1511 0.231100
1511 VDD VDD:1512 0.148400
1512 VDD VDD:1513 0.294700
1513 VDD VDD:1514 0.190000
1514 VDD VDD:1515 0.260500
1515 VDD VDD:1516 0.256800
1516 VDD VDD:1517 0.208100
1517 VDD VDD:1518 0.104800
1518 VDD VDD:1519 0.207100
1519 VDD VDD:1520 0.143600
1520 VDD VDD:1521 0.116700
1521 VDD VDD:1522 0.182100
1522 VDD VDD:1523 0.265900
1523 VDD VDD:1524 0.121800
1524 VDD VDD:1525 0.160400
1525 VDD VDD:1526 0.242300
1526 VDD VDD:1527 0.154300
1527 VDD VDD:1528 0.058500
1528 VDD VDD:1529 0.250200
1529 VDD VDD:1530 0.264800
1530 VDD VDD:1531 0.264400
1531 VDD VDD:1532 0.052500
1532 VDD VDD:1533 0.254800
1533 VDD VDD:1534 0.038700
1534 VDD VDD:1535 0.245900
1535 VDD VDD:1536 0.151800
1536 VDD VDD:1537 0.243300
1537 VDD VDD:1538 0.030100
1538 VDD VDD:1539 0.198200
1539 VDD VDD:1540 0.276100
1540 VDD VDD:1541 0.251300
1541 VDD VDD:1542 0.300000
1542 VDD VDD:1543 0.071600
1543 VDD VDD:1544 0.121800
1544 VDD VDD:1545 0.299900
1545 VDD VDD:1546 0.168200
1546 VDD VDD:1547 0.121200
1547 VDD VDD:1548 0.100600
1548 VDD VDD:1549 0.178600
1549 VDD VDD:1550 0.093800
1550 VDD VDD:1551 0.102800
1551 VDD VDD:1552 0.159200
1552 VDD VDD:1553 0.120700
1553 VDD VDD:1554 0.152100
1554 VDD VDD:1555 0.191000
1555 VDD VDD:1556 0.110800
1556 VDD VDD:1557 0.211100
1557 VDD VDD:1558 0.222400
1558 VDD VDD:1559 0.171900
1559 VDD VDD:1560 0.173500
1560 VDD VDD:1561 0.261300
1561 VDD VDD:1562 0.123500
1562 VDD VDD:1563 0.222900
1563 VDD VDD:1564 0.210500
1564 VDD VDD:1565 0.257200
1565 VDD VDD:1566 0.113200
1566 VDD VDD:1567 0.298200
1567 VDD VDD:1568 0.198700
1568 VDD VDD:1569 0.262800
1569 VDD VDD:1570 0.260100
1570 VDD VDD:1571 0.292700
1571 VDD VDD:1572 0.258200
1572 VDD VDD:1573 0.247500
1573 VDD VDD:1574 0.177600
1574 VDD VDD:1575 0.179900
1575 VDD VDD:1576 0.264000
1576 VDD VDD:1577 0.118800
1577 VDD VDD:1578 0.208600
1578 VDD VDD:1579 0.230000
1579 VDD VDD:1580 0.266900
1580 VDD VDD:1581 0.298300
1581 VDD VDD:1582 0.304300
1582 VDD VDD:1583 0.248000
1583 VDD VDD:1584 0.059200
1584 VDD VDD:1585 0.153800
1585 VDD VDD:1586 0.053800
1586 VDD VDD:1587 0.064100
1587 VDD VDD:1588 0.196800
1588 VDD VDD:1589 0.147000
1589 VDD VDD:1590 0.256200
1590 VDD VDD:1591 0.245300
1591 VDD VDD:1592 0.031600
1592 VDD VDD:1593 0.036400
1593 VDD VDD:1594 0.073800
1594 VDD VDD:1595 0.200100
1595 VDD VDD:1596 0.144200
1596 VDD VDD:1597 0.297900
1597 VDD VDD:1598 0.099500
1598 VDD VDD:1599 0.211100
1599 VDD VDD:1600 0.209100
1600 VDD VDD:1601 0.119600
1601 VDD VDD:1602 0.244500
1602 VDD VDD:1603 0.249700
1603 VDD VDD:1604 0.266500
1604 VDD VDD:1605 0.259000
1605 VDD VDD:1606 0.278100
1606 VDD VDD:1607 0.182100
1607 VDD VDD:1608 0.167800
1608 VDD VDD:1609 0.056100
1609 VDD VDD:1610 0.248500
1610 VDD VDD:1611 0.208300
1611 VDD VDD:1612 0.157300
1612 VDD VDD:1613 0.099400
1613 VDD VDD:1614 0.113300
1614 VDD VDD:1615 0.112400
1615 VDD VDD:1616 0.145200
1616 VDD VDD:1617 0.152800
1617 VDD VDD:1618 0.281700
1618 VDD VDD:1619 0.212600
1619 VDD VDD:1620 0.247000
1620 VDD VDD:1621 0.032500
1621 VDD VDD:1622 0.294300
1622 VDD VDD:1623 0.262800
1623 VDD VDD:1624 0.120100
1624 VDD VDD:1625 0.192800
1625 VDD VDD:1626 0.097600
1626 VDD VDD:1627 0.218800
1627 VDD VDD:1628 0.077700
1628 VDD VDD:1629 0.062200
1629 VDD VDD:1630 0.263400
1630 VDD VDD:1631 0.213200
1631 VDD VDD:1632 0.261600
1632 VDD VDD:1633 0.167300
1633 VDD VDD:1634 0.034400
1634 VDD VDD:1635 0.174700
1635 VDD VDD:1636 0.301500
1636 VDD VDD:1637 0.244200
1637 VDD VDD:1638 0.248700
1638 VDD VDD:1639 0.269500
1639 VDD VDD:1640 0.253100
1640 VDD VDD:1641 0.213300
1641 VDD VDD:1642 0.199100
1642 VDD VDD:1643 0.115800
1643 VDD VDD:1644 0.258700
1644 VDD VDD:1645 0.259100
1645 VDD VDD:1646 0.256000
1646 VDD VDD:1647 0.254100
1647 VDD VDD:1648 0.289100
1648 VDD VDD:1649 0.250400
1649 VDD VDD:1650 0.144600
1650 VDD VDD:1651 0.167900
1651 VDD VDD:1652 0.181600
1652 VDD VDD:1653 0.295300
1653 VDD VDD:1654 0.307600
1654 VDD VDD:1655 0.228100
1655 VDD VDD:1656 0.224900
1656 VDD VDD:1657 0.193600
1657 VDD VDD:1658 0.182200
1658 VDD VDD:1659 0.122400
1659 VDD VDD:1660 0.268700
1660 VDD VDD:1661 0.209500
1661 VDD VDD:1662 0.126400
1662 VDD VDD:1663 0.203700
1663 VDD VDD:1664 0.060800
1664 VDD VDD:1665 0.153000
1665 VDD VDD:1666 0.095400
1666 VDD VDD:1667 0.182400
1667 VDD VDD:1668 0.062200
1668 VDD VDD:1669 0.212400
1669 VDD VDD:1670 0.190200
1670 VDD VDD:1671 0.159100
1671 VDD VDD:1672 0.139300
1672 VDD VDD:1673 0.216400
1673 VDD VDD:1674 0.229700
1674 VDD VDD:1675 0.281800
1675 VDD VDD:1676 0.251500
1676 VDD VDD:1677 0.220400
1677 VDD VDD:1678 0.187400
1678 VDD VDD:1679 0.256200
1679 VDD VDD:1680 0.147200
1680 VDD VDD:1681 0.314400
1681 VDD VDD:1682 0.289500
1682 VDD VDD:1683 0.263000
1683 VDD VDD:1684 0.244400
1684 VDD VDD:1685 0.250300
1685 VDD VDD:1686 0.256400
1686 VDD VDD:1687 0.254500
1687 VDD VDD:1688 0.245400
1688 VDD VDD:1689 0.116800
1689 VDD VDD:1690 0.154100
1690 VDD VDD:1691 0.153900
1691 VDD VDD:1692 0.240700
1692 VDD VDD:1693 0.093400
1693 VDD VDD:1694 0.138900
1694 VDD VDD:1695 0.257200
1695 VDD VDD:1696 0.024300
1696 VDD VDD:1697 0.178200
1697 VDD VDD:1698 0.275600
1698 VDD VDD:1699 0.151100
1699 VDD VDD:1700 0.309100
1700 VDD VDD:1701 0.193400
1701 VDD VDD:1702 0.247500
1702 VDD VDD:1703 0.272300
1703 VDD VDD:1704 0.217300
1704 VDD VDD:1705 0.081600
1705 VDD VDD:1706 0.130000
1706 VDD VDD:1707 0.270900
1707 VDD VDD:1708 0.235800
1708 VDD VDD:1709 0.286600
1709 VDD VDD:1710 0.141100
1710 VDD VDD:1711 0.058200
1711 VDD VDD:1712 0.197500
1712 VDD VDD:1713 0.132400
1713 VDD VDD:1714 0.211400
1714 VDD VDD:1715 0.211500
1715 VDD VDD:1716 0.118500
1716 VDD VDD:1717 0.092000
1717 VDD VDD:1718 0.224800
1718 VDD VDD:1719 0.072500
1719 VDD VDD:1720 0.113100
1720 VDD VDD:1721 0.289500
1721 VDD VDD:1722 0.219200
1722 VDD VDD:1723 0.167000
1723 VDD VDD:1724 0.182200
1724 VDD VDD:1725 0.040800
1725 VDD VDD:1726 0.085900
1726 VDD VDD:1727 0.143200
1727 VDD VDD:1728 0.098700
1728 VDD VDD:1729 0.092800
1729 VDD VDD:1730 0.064300
1730 VDD VDD:1731 0.264600
1731 VDD VDD:1732 0.113500
1732 VDD VDD:1733 0.107800
1733 VDD VDD:1734 0.196400
1734 VDD VDD:1735 0.148300
1735 VDD VDD:1736 0.186400
1736 VDD VDD:1737 0.201000
1737 VDD VDD:1738 0.263000
1738 VDD VDD:1739 0.201900
1739 VDD VDD:1740 0.021300
1740 VDD VDD:1741 0.273800
1741 VDD VDD:1742 0.118300
1742 VDD VDD:1743 0.064400
1743 VDD VDD:1744 0.104900
1744 VDD VDD:1745 0.273900
1745 VDD VDD:1746 0.132900
1746 VDD VDD:1747 0.089400
1747 VDD VDD:1748 0.066000
1748 VDD VDD:1749 0.137700
1749 VDD VDD:1750 0.189400
1750 VDD VDD:1751 0.278100
1751 VDD VDD:1752 0.134900
1752 VDD VDD:1753 0.082100
1753 VDD VDD:1754 0.199100
1754 VDD VDD:1755 0.221600
1755 VDD VDD:1756 0.092300
1756 VDD VDD:1757 0.057200
1757 VDD VDD:1758 0.152800
1758 VDD VDD:1759 0.145800
1759 VDD VDD:1760 0.118300
1760 VDD VDD:1761 0.317000
1761 VDD VDD:1762 0.113900
1762 VDD VDD:1763 0.231300
1763 VDD VDD:1764 0.183900
1764 VDD VDD:1765 0.150000
1765 VDD VDD:1766 0.154700
1766 VDD VDD:1767 0.266700
1767 VDD VDD:1768 0.089000
1768 VDD VDD:1769 0.258600
1769 VDD VDD:1770 0.292400
1770 VDD VDD:1771 0.150700
1771 VDD VDD:1772 0.100300
1772 VDD VDD:1773 0.043400
1773 VDD VDD:1774 0.095900
1774 VDD VDD:1775 0.262600
1775 VDD VDD:1776 0.192100
1776 VDD VDD:1777 0.260400
1777 VDD VDD:1778 0.138200
1778 VDD VDD:1779 0.193300
1779 VDD VDD:1780 0.155900
1780 VDD VDD:1781 0.116300
1781 VDD VDD:1782 0.223200
1782 VDD VDD:1783 0.166800
1783 VDD VDD:1784 0.213300
1784 VDD VDD:1785 0.194200
1785 VDD VDD:1786 0.075700
1786 VDD VDD:1787 0.201500
1787 VDD VDD:1788 0.182500
1788 VDD VDD:1789 0.208700
1789 VDD VDD:1790 0.241200
1790 VDD VDD:1791 0.283800
1791 VDD VDD:1792 0.214300
1792 VDD VDD:1793 0.248600
1793 VDD VDD:1794 0.279000
1794 VDD VDD:1795 0.263300
1795 VDD VDD:1796 0.199700
1796 VDD VDD:1797 0.253500
1797 VDD VDD:1798 0.244400
1798 VDD VDD:1799 0.223500
1799 VDD VDD:1800 0.144300
1800 VDD VDD:1801 0.219100
1801 VDD VDD:1802 0.219400
1802 VDD VDD:1803 0.232700
1803 VDD VDD:1804 0.257700
1804 VDD VDD:1805 0.179300
1805 VDD VDD:1806 0.259100
1806 VDD VDD:1807 0.311700
1807 VDD VDD:1808 0.242200
1808 VDD VDD:1809 0.149400
1809 VDD VDD:1810 0.287200
1810 VDD VDD:1811 0.238600
1811 VDD VDD:1812 0.236700
1812 VDD VDD:1813 0.271700
1813 VDD VDD:1814 0.172000
1814 VDD VDD:1815 0.273000
1815 VDD VDD:1816 0.193100
1816 VDD VDD:1817 0.218300
1817 VDD VDD:1818 0.182000
1818 VDD VDD:1819 0.175700
1819 VDD VDD:1820 0.176100
1820 VDD VDD:1821 0.239600
1821 VDD VDD:1822 0.225400
1822 VDD VDD:1823 0.145800
1823 VDD VDD:1824 0.173200
1824 VDD VDD:1825 0.221500
1825 VDD VDD:1826 0.260600
1826 VDD VDD:1827 0.236000
1827 VDD VDD:1828 0.263900
1828 VDD VDD:1829 0.117600
1829 VDD VDD:1830 0.275500
1830 VDD VDD:1831 0.257000
1831 VDD VDD:1832 0.137600
1832 VDD VDD:1833 0.236700
1833 VDD VDD:1834 0.271700
1834 VDD VDD:1835 0.172000
1835 VDD VDD:1836 0.273000
1836 VDD VDD:1837 0.193100
1837 VDD VDD:1838 0.218300
1838 VDD VDD:1839 0.182000
1839 VDD VDD:1840 0.175700
1840 VDD VDD:1841 0.176100
1841 VDD VDD:1842 0.239600
1842 VDD VDD:1843 0.225400
1843 VDD VDD:1844 0.145800
1844 VDD VDD:1845 0.173200
1845 VDD VDD:1846 0.221500
1846 VDD VDD:1847 0.260600
1847 VDD VDD:1848 0.236000
1848 VDD VDD:1849 0.263900
1849 VDD VDD:1850 0.117600
1850 VDD VDD:1851 0.275500
1851 VDD VDD:1852 0.257000
1852 VDD VDD:1853 0.137600
1853 VDD VDD:1854 0.120400
1854 VDD VDD:1855 0.260400
1855 VDD VDD:1856 0.134100
1856 VDD VDD:1857 0.240300
1857 VDD VDD:1858 0.227000
1858 VDD VDD:1859 0.276100
1859 VDD VDD:1860 0.175600
1860 VDD VDD:1861 0.257100
1861 VDD VDD:1862 0.240600
1862 VDD VDD:1863 0.271300
1863 VDD VDD:1864 0.176500
1864 VDD VDD:1865 0.271900
1865 VDD VDD:1866 0.222000
1866 VDD VDD:1867 0.148000
1867 VDD VDD:1868 0.184900
1868 VDD VDD:1869 0.232300
1869 VDD VDD:1870 0.260200
1870 VDD VDD:1871 0.189700
1871 VDD VDD:1872 0.179300
1872 VDD VDD:1873 0.224400
1873 VDD VDD:1874 0.175100
1874 VDD VDD:1875 0.098000
1875 VDD VDD:1876 0.088900
1876 VDD VDD:1877 0.171700
1877 VDD VDD:1878 0.139500
1878 VDD VDD:1879 0.203200
1879 VDD VDD:1880 0.216800
1880 VDD VDD:1881 0.172800
1881 VDD VDD:1882 0.207400
1882 VDD VDD:1883 0.046800
1883 VDD VDD:1884 0.108900
1884 VDD VDD:1885 0.066200
1885 VDD VDD:1886 0.157600
1886 VDD VDD:1887 0.094600
1887 VDD VDD:1888 0.107000
1888 VDD VDD:1889 0.230600
1889 VDD VDD:1890 0.241500
1890 VDD VDD:1891 0.200700
1891 VDD VDD:1892 0.184100
1892 VDD VDD:1893 0.098000
1893 VDD VDD:1894 0.226900
1894 VDD VDD:1895 0.182300
1895 VDD VDD:1896 0.218400
1896 VDD VDD:1897 0.257000
1897 VDD VDD:1898 0.197200
1898 VDD VDD:1899 0.191900
1899 VDD VDD:1900 0.186800
1900 VDD VDD:1901 0.229100
1901 VDD VDD:1902 0.225200
1902 VDD VDD:1903 0.150000
1903 VDD VDD:1904 0.157900
1904 VDD VDD:1905 0.271000
1905 VDD VDD:1906 0.299700
1906 VDD VDD:1907 0.268900
1907 VDD VDD:1908 0.187400
1908 VDD VDD:1909 0.114100
1909 VDD VDD:1910 0.176900
1910 VDD VDD:1911 0.269500
1911 VDD VDD:1912 0.211100
1912 VDD VDD:1913 0.229600
1913 VDD VDD:1914 0.228300
1914 VDD VDD:1915 0.131200
1915 VDD VDD:1916 0.238900
1916 VDD VDD:1917 0.178800
1917 VDD VDD:1918 0.088900
1918 VDD VDD:1919 0.239500
1919 VDD VDD:1920 0.171700
1920 VDD VDD:1921 0.257500
1921 VDD VDD:1922 0.254200
1922 VDD VDD:1923 0.267300
1923 VDD VDD:1924 0.243100
1924 VDD VDD:1925 0.243500
1925 VDD VDD:1926 0.278800
1926 VDD VDD:1927 0.263300
1927 VDD VDD:1928 0.180500
1928 VDD VDD:1929 0.129200
1929 VDD VDD:1930 0.139500
1930 VDD VDD:1931 0.244100
1931 VDD VDD:1932 0.176800
1932 VDD VDD:1933 0.122900
1933 VDD VDD:1934 0.192100
1934 VDD VDD:1935 0.179000
1935 VDD VDD:1936 0.229000
1936 VDD VDD:1937 0.109000
1937 VDD VDD:1938 0.267400
1938 VDD VDD:1939 0.192300
1939 VDD VDD:1940 0.174900
1940 VDD VDD:1941 0.244400
1941 VDD VDD:1942 0.116200
1942 VDD VDD:1943 0.199000
1943 VDD VDD:1944 0.229300
1944 VDD VDD:1945 0.120900
1945 VDD VDD:1946 0.291300
1946 VDD VDD:1947 0.247200
1947 VDD VDD:1948 0.286100
1948 VDD VDD:1949 0.174300
1949 VDD VDD:1950 0.087100
1950 VDD VDD:1951 0.270600
1951 VDD VDD:1952 0.017300
1952 VDD VDD:1953 0.256600
1953 VDD VDD:1954 0.024400
1954 VDD VDD:1955 0.213300
1955 VDD VDD:1956 0.164600
1956 VDD VDD:1957 0.169000
1957 VDD VDD:1958 0.211200
1958 VDD VDD:1959 0.113500
1959 VDD VDD:1960 0.217500
1960 VDD VDD:1961 0.113400
1961 VDD VDD:1962 0.197800
1962 VDD VDD:1963 0.272400
1963 VDD VDD:1964 0.086300
1964 VDD VDD:1965 0.054700
1965 VDD VDD:1966 0.116400
1966 VDD VDD:1967 0.246400
1967 VDD VDD:1968 0.090700
1968 VDD VDD:1969 0.318800
1969 VDD VDD:1970 0.095700
1970 VDD VDD:1971 0.283000
1971 VDD VDD:1972 0.188000
1972 VDD VDD:1973 0.230500
1973 VDD VDD:1974 0.105500
1974 VDD VDD:1975 0.119600
1975 VDD VDD:1976 0.248600
1976 VDD VDD:1977 0.152800
1977 VDD VDD:1978 0.117600
1978 VDD VDD:1979 0.198000
1979 VDD VDD:1980 0.152900
1980 VDD VDD:1981 0.222700
1981 VDD VDD:1982 0.316400
1982 VDD VDD:1983 0.205600
1983 VDD VDD:1984 0.224600
1984 VDD VDD:1985 0.230100
1985 VDD VDD:1986 0.062400
1986 VDD VDD:1987 0.149200
1987 VDD VDD:1988 0.182300
1988 VDD VDD:1989 0.184100
1989 VDD VDD:1990 0.284100
1990 VDD VDD:1991 0.205100
1991 VDD VDD:1992 0.079500
1992 VDD VDD:1993 0.089100
1993 VDD VDD:1994 0.232900
1994 VDD VDD:1995 0.125100
1995 VDD VDD:1996 0.176900
1996 VDD VDD:1997 0.283300
1997 VDD VDD:1998 0.023200
1998 VDD VDD:1999 0.144900
1999 VDD VDD:2000 0.262400
2000 VDD VDD:2001 0.162800
2001 VDD VDD:2002 0.287300
2002 VDD VDD:2003 0.216700
2003 VDD VDD:2004 0.278000
2004 VDD VDD:2005 0.255300
2005 VDD VDD:2006 0.049200
2006 VDD VDD:2007 0.128400
2007 VDD VDD:2008 0.201700
2008 VDD VDD:2009 0.234100
2009 VDD VDD:2010 0.262200
2010 VDD VDD:2011 0.242300
2011 VDD VDD:2012 0.198000
2012 VDD VDD:2013 0.187700
2013 VDD VDD:2014 0.114600
2014 VDD VDD:2015 0.184100
2015 VDD VDD:2016 0.160100
2016 VDD VDD:2017 0.182200
2017 VDD VDD:2018 0.320100
2018 VDD VDD:2019 0.046400
2019 VDD VDD:2020 0.141500
2020 VDD VDD:2021 0.219200
2021 VDD VDD:2022 0.054500
2022 VDD VDD:2023 0.109600
2023 VDD VDD:2024 0.127400
2024 VDD VDD:2025 0.126800
2025 VDD VDD:2026 0.105100
2026 VDD VDD:2027 0.208300
2027 VDD VDD:2028 0.192100
2028 VDD VDD:2029 0.179000
2029 VDD VDD:2030 0.229000
2030 VDD VDD:2031 0.109000
2031 VDD VDD:2032 0.267400
2032 VDD VDD:2033 0.192300
2033 VDD VDD:2034 0.174900
2034 VDD VDD:2035 0.244400
2035 VDD VDD:2036 0.116200
2036 VDD VDD:2037 0.199000
2037 VDD VDD:2038 0.229300
2038 VDD VDD:2039 0.120900
2039 VDD VDD:2040 0.291300
2040 VDD VDD:2041 0.203200
2041 VDD VDD:2042 0.247200
2042 VDD VDD:2043 0.286100
2043 VDD VDD:2044 0.174300
2044 VDD VDD:2045 0.087100
2045 VDD VDD:2046 0.270600
2046 VDD VDD:2047 0.017300
2047 VDD VDD:2048 0.256600
2048 VDD VDD:2049 0.024400
2049 VDD VDD:2050 0.216800
2050 VDD VDD:2051 0.213300
2051 VDD VDD:2052 0.164600
2052 VDD VDD:2053 0.169000
2053 VDD VDD:2054 0.211200
2054 VDD VDD:2055 0.113500
2055 VDD VDD:2056 0.217500
2056 VDD VDD:2057 0.172800
2057 VDD VDD:2058 0.113400
2058 VDD VDD:2059 0.197800
2059 VDD VDD:2060 0.272400
2060 VDD VDD:2061 0.207400
2061 VDD VDD:2062 0.086300
2062 VDD VDD:2063 0.054700
2063 VDD VDD:2064 0.116400
2064 VDD VDD:2065 0.246400
2065 VDD VDD:2066 0.046800
2066 VDD VDD:2067 0.090700
2067 VDD VDD:2068 0.318800
2068 VDD VDD:2069 0.095700
2069 VDD VDD:2070 0.283000
2070 VDD VDD:2071 0.108900
2071 VDD VDD:2072 0.188000
2072 VDD VDD:2073 0.230500
2073 VDD VDD:2074 0.066200
2074 VDD VDD:2075 0.105500
2075 VDD VDD:2076 0.119600
2076 VDD VDD:2077 0.248600
2077 VDD VDD:2078 0.152800
2078 VDD VDD:2079 0.117600
2079 VDD VDD:2080 0.157600
2080 VDD VDD:2081 0.198000
2081 VDD VDD:2082 0.152900
2082 VDD VDD:2083 0.222700
2083 VDD VDD:2084 0.316400
2084 VDD VDD:2085 0.205600
2085 VDD VDD:2086 0.224600
2086 VDD VDD:2087 0.230100
2087 VDD VDD:2088 0.062400
2088 VDD VDD:2089 0.149200
2089 VDD VDD:2090 0.094600
2090 VDD VDD:2091 0.182300
2091 VDD VDD:2092 0.184100
2092 VDD VDD:2093 0.284100
2093 VDD VDD:2094 0.205100
2094 VDD VDD:2095 0.107000
2095 VDD VDD:2096 0.079500
2096 VDD VDD:2097 0.089100
2097 VDD VDD:2098 0.232900
2098 VDD VDD:2099 0.125100
2099 VDD VDD:2100 0.176900
2100 VDD VDD:2101 0.283300
2101 VDD VDD:2102 0.023200
2102 VDD VDD:2103 0.144900
2103 VDD VDD:2104 0.230600
2104 VDD VDD:2105 0.262400
2105 VDD VDD:2106 0.162800
2106 VDD VDD:2107 0.287300
2107 VDD VDD:2108 0.216700
2108 VDD VDD:2109 0.278000
2109 VDD VDD:2110 0.255300
2110 VDD VDD:2111 0.049200
2111 VDD VDD:2112 0.128400
2112 VDD VDD:2113 0.201700
2113 VDD VDD:2114 0.234100
2114 VDD VDD:2115 0.262200
2115 VDD VDD:2116 0.242300
2116 VDD VDD:2117 0.198000
2117 VDD VDD:2118 0.187700
2118 VDD VDD:2119 0.114600
2119 VDD VDD:2120 0.184100
2120 VDD VDD:2121 0.160100
2121 VDD VDD:2122 0.182200
2122 VDD VDD:2123 0.320100
2123 VDD VDD:2124 0.046400
2124 VDD VDD:2125 0.141500
2125 VDD VDD:2126 0.219200
2126 VDD VDD:2127 0.054500
2127 VDD VDD:2128 0.109600
2128 VDD VDD:2129 0.127400
2129 VDD VDD:2130 0.126800
2130 VDD VDD:2131 0.105100
2131 VDD VDD:2132 0.208300
2132 VDD VDD:2133 0.254200
2133 VDD VDD:2134 0.120400
2134 VDD VDD:2135 0.220000
2135 VDD VDD:2136 0.256200
2136 VDD VDD:2137 0.218600
2137 VDD VDD:2138 0.238900
2138 VDD VDD:2139 0.246700
2139 VDD VDD:2140 0.159600
2140 VDD VDD:2141 0.197800
2141 VDD VDD:2142 0.050500
2142 VDD VDD:2143 0.254200
2143 VDD VDD:2144 0.185700
2144 VDD VDD:2145 0.200400
2145 VDD VDD:2146 0.162400
2146 VDD VDD:2147 0.172200
2147 VDD VDD:2148 0.125900
2148 VDD VDD:2149 0.120400
2149 VDD VDD:2150 0.220000
2150 VDD VDD:2151 0.256200
2151 VDD VDD:2152 0.218600
2152 VDD VDD:2153 0.238900
2153 VDD VDD:2154 0.068000
2154 VDD VDD:2155 0.233200
2155 VDD VDD:2156 0.238900
2156 VDD VDD:2157 0.073500
2157 VDD VDD:2158 0.246700
2158 VDD VDD:2159 0.050900
2159 VDD VDD:2160 0.145900
2160 VDD VDD:2161 0.199400
2161 VDD VDD:2162 0.062600
2162 VDD VDD:2163 0.159600
2163 VDD VDD:2164 0.197800
2164 VDD VDD:2165 0.232000
2165 VDD VDD:2166 0.050500
2166 VDD VDD:2167 0.117000
2167 VDD VDD:2168 0.159800
2168 VDD VDD:2169 0.065300
2169 VDD VDD:2170 0.236300
2170 VDD VDD:2171 0.231700
2171 VDD VDD:2172 0.146600
2172 VDD VDD:2173 0.122600
2173 VDD VDD:2174 0.241300
2174 VDD VDD:2175 0.060400
2175 VDD VDD:2176 0.200000
2176 VDD VDD:2177 0.162500
2177 VDD VDD:2178 0.104800
2178 VDD VDD:2179 0.212300
2179 VDD VDD:2180 0.063500
2180 VDD VDD:2181 0.306600
2181 VDD VDD:2182 0.083400
2182 VDD VDD:2183 0.235100
2183 VDD VDD:2184 0.058300
2184 VDD VDD:2185 0.243700
2185 VDD VDD:2186 0.107700
2186 VDD VDD:2187 0.188300
2187 VDD VDD:2188 0.239500
2188 VDD VDD:2189 0.062700
2189 VDD VDD:2190 0.199700
2190 VDD VDD:2191 0.125400
2191 VDD VDD:2192 0.109700
2192 VDD VDD:2193 0.147300
2193 VDD VDD:2194 0.175700
2194 VDD VDD:2195 0.140100
2195 VDD VDD:2196 0.271700
2196 VDD VDD:2197 0.119200
2197 VDD VDD:2198 0.231400
2198 VDD VDD:2199 0.150600
2199 VDD VDD:2200 0.042000
2200 VDD VDD:2201 0.214000
2201 VDD VDD:2202 0.242500
2202 VDD VDD:2203 0.157300
2203 VDD VDD:2204 0.189300
2204 VDD VDD:2205 0.248000
2205 VDD VDD:2206 0.101100
2206 VDD VDD:2207 0.267200
2207 VDD VDD:2208 0.162500
2208 VDD VDD:2209 0.104800
2209 VDD VDD:2210 0.212300
2210 VDD VDD:2211 0.063500
2211 VDD VDD:2212 0.207600
2212 VDD VDD:2213 0.306600
2213 VDD VDD:2214 0.083400
2214 VDD VDD:2215 0.235100
2215 VDD VDD:2216 0.058300
2216 VDD VDD:2217 0.240200
2217 VDD VDD:2218 0.243700
2218 VDD VDD:2219 0.107700
2219 VDD VDD:2220 0.188300
2220 VDD VDD:2221 0.177400
2221 VDD VDD:2222 0.239500
2222 VDD VDD:2223 0.062700
2223 VDD VDD:2224 0.199700
2224 VDD VDD:2225 0.125400
2225 VDD VDD:2226 0.109700
2226 VDD VDD:2227 0.147300
2227 VDD VDD:2228 0.175700
2228 VDD VDD:2229 0.140100
2229 VDD VDD:2230 0.271700
2230 VDD VDD:2231 0.119200
2231 VDD VDD:2232 0.231400
2232 VDD VDD:2233 0.150600
2233 VDD VDD:2234 0.042000
2234 VDD VDD:2235 0.214000
2235 VDD VDD:2236 0.242500
2236 VDD VDD:2237 0.157300
2237 VDD VDD:2238 0.189300
2238 VDD VDD:2239 0.248000
2239 VDD VDD:2240 0.101100
2240 VDD VDD:2241 0.267200
2241 VDD VDD:2242 0.199400
2242 VDD VDD:2243 0.113400
2243 VDD VDD:2244 0.061800
2244 VDD VDD:2245 0.096500
2245 VDD VDD:2246 0.245400
2246 VDD VDD:2247 0.079900
2247 VDD VDD:2248 0.153200
2248 VDD VDD:2249 0.182300
2249 VDD VDD:2250 0.216800
2250 VDD VDD:2251 0.061200
2251 VDD VDD:2252 0.215000
2252 VDD VDD:2253 0.292300
2253 VDD VDD:2254 0.143300
2254 VDD VDD:2255 0.191700
2255 VDD VDD:2256 0.214400
2256 VDD VDD:2257 0.167000
2257 VDD VDD:2258 0.119800
2258 VDD VDD:2259 0.152600
2259 VDD VDD:2260 0.124500
2260 VDD VDD:2261 0.206700
2261 VDD VDD:2262 0.036100
2262 VDD VDD:2263 0.261800
2263 VDD VDD:2264 0.263100
2264 VDD VDD:2265 0.175400
2265 VDD VDD:2266 0.265000
2266 VDD VDD:2267 0.030200
2267 VDD VDD:2268 0.271300
2268 VDD VDD:2269 0.250600
2269 VDD VDD:2270 0.253700
2270 VDD VDD:2271 0.250800
2271 VDD VDD:2272 0.128100
2272 VDD VDD:2273 0.309500
2273 VDD VDD:2274 0.251800
2274 VDD VDD:2275 0.096400
2275 VDD VDD:2276 0.226000
2276 VDD VDD:2277 0.205700
2277 VDD VDD:2278 0.113600
2278 VDD VDD:2279 0.097500
2279 VDD VDD:2280 0.199400
2280 VDD VDD:2281 0.113400
2281 VDD VDD:2282 0.061800
2282 VDD VDD:2283 0.096500
2283 VDD VDD:2284 0.245400
2284 VDD VDD:2285 0.079900
2285 VDD VDD:2286 0.153200
2286 VDD VDD:2287 0.182300
2287 VDD VDD:2288 0.216800
2288 VDD VDD:2289 0.061200
2289 VDD VDD:2290 0.215000
2290 VDD VDD:2291 0.292300
2291 VDD VDD:2292 0.143300
2292 VDD VDD:2293 0.191700
2293 VDD VDD:2294 0.214400
2294 VDD VDD:2295 0.167000
2295 VDD VDD:2296 0.119800
2296 VDD VDD:2297 0.152600
2297 VDD VDD:2298 0.124500
2298 VDD VDD:2299 0.206700
2299 VDD VDD:2300 0.036100
2300 VDD VDD:2301 0.261800
2301 VDD VDD:2302 0.263100
2302 VDD VDD:2303 0.175400
2303 VDD VDD:2304 0.265000
2304 VDD VDD:2305 0.030200
2305 VDD VDD:2306 0.271300
2306 VDD VDD:2307 0.250600
2307 VDD VDD:2308 0.253700
2308 VDD VDD:2309 0.250800
2309 VDD VDD:2310 0.128100
2310 VDD VDD:2311 0.309500
2311 VDD VDD:2312 0.251800
2312 VDD VDD:2313 0.096400
2313 VDD VDD:2314 0.226000
2314 VDD VDD:2315 0.205700
2315 VDD VDD:2316 0.113600
2316 VDD VDD:2317 0.097500
2317 VDD VDD:2318 0.153800
2318 VDD VDD:2319 0.233700
2319 VDD VDD:2320 0.153800
2320 VDD VDD:2321 0.233700
2321 VDD VDD:2322 0.157400
2322 VDD VDD:2323 0.237300
2323 VDD VDD:2324 0.052500
2324 VDD VDD:2325 0.160700
2325 VDD VDD:2326 0.205400
2326 VDD VDD:2327 0.169000
2327 VDD VDD:2328 0.047900
2328 VDD VDD:2329 0.156700
2329 VDD VDD:2330 0.258200
2330 VDD VDD:2331 0.199600
2331 VDD VDD:2332 0.264500
2332 VDD VDD:2333 0.240700
2333 VDD VDD:2334 0.070200
2334 VDD VDD:2335 0.217400
2335 VDD VDD:2336 0.241900
2336 VDD VDD:2337 0.222000
2337 VDD VDD:2338 0.247900
2338 VDD VDD:2339 0.186800
2339 VDD VDD:2340 0.196000
2340 VDD VDD:2341 0.084100
2341 VDD VDD:2342 0.233800
2342 VDD VDD:2343 0.049100
2343 VDD VDD:2344 0.247900
2344 VDD VDD:2345 0.136100
2345 VDD VDD:2346 0.231800
2346 VDD VDD:2347 0.249700
2347 VDD VDD:2348 0.150500
2348 VDD VDD:2349 0.266700
2349 VDD VDD:2350 0.074100
2350 VDD VDD:2351 0.176400
2351 VDD VDD:2352 0.281000
2352 VDD VDD:2353 0.267200
2353 VDD VDD:2354 0.185000
2354 VDD VDD:2355 0.070100
2355 VDD VDD:2356 0.055500
2356 VDD VDD:2357 0.203000
2357 VDD VDD:2358 0.160600
2358 VDD VDD:2359 0.219200
2359 VDD VDD:2360 0.143900
2360 VDD VDD:2361 0.124000
2361 VDD VDD:2362 0.244100
2362 VDD VDD:2363 0.207300
2363 VDD VDD:2364 0.255700
2364 VDD VDD:2365 0.188000
2365 VDD VDD:2366 0.164200
2366 VDD VDD:2367 0.163500
2367 VDD VDD:2368 0.207500
2368 VDD VDD:2369 0.052500
2369 VDD VDD:2370 0.155700
2370 VDD VDD:2371 0.233200
2371 VDD VDD:2372 0.133100
2372 VDD VDD:2373 0.129300
2373 VDD VDD:2374 0.162100
2374 VDD VDD:2375 0.169100
2375 VDD VDD:2376 0.196600
2376 VDD VDD:2377 0.197600
2377 VDD VDD:2378 0.258200
2378 VDD VDD:2379 0.117400
2379 VDD VDD:2380 0.081700
2380 VDD VDD:2381 0.299400
2381 VDD VDD:2382 0.050100
2382 VDD VDD:2383 0.235600
2383 VDD VDD:2384 0.011500
2384 VDD VDD:2385 0.170500
2385 VDD VDD:2386 0.182900
2386 VDD VDD:2387 0.181100
2387 VDD VDD:2388 0.084100
2388 VDD VDD:2389 0.233800
2389 VDD VDD:2390 0.049100
2390 VDD VDD:2391 0.157600
2391 VDD VDD:2392 0.247900
2392 VDD VDD:2393 0.136100
2393 VDD VDD:2394 0.231800
2394 VDD VDD:2395 0.249700
2395 VDD VDD:2396 0.150500
2396 VDD VDD:2397 0.266700
2397 VDD VDD:2398 0.074100
2398 VDD VDD:2399 0.176400
2399 VDD VDD:2400 0.281000
2400 VDD VDD:2401 0.267200
2401 VDD VDD:2402 0.185000
2402 VDD VDD:2403 0.070100
2403 VDD VDD:2404 0.055500
2404 VDD VDD:2405 0.203000
2405 VDD VDD:2406 0.160600
2406 VDD VDD:2407 0.219200
2407 VDD VDD:2408 0.143900
2408 VDD VDD:2409 0.124000
2409 VDD VDD:2410 0.244100
2410 VDD VDD:2411 0.207300
2411 VDD VDD:2412 0.184300
2412 VDD VDD:2413 0.255700
2413 VDD VDD:2414 0.188000
2414 VDD VDD:2415 0.164200
2415 VDD VDD:2416 0.163500
2416 VDD VDD:2417 0.207500
2417 VDD VDD:2418 0.052500
2418 VDD VDD:2419 0.155700
2419 VDD VDD:2420 0.233200
2420 VDD VDD:2421 0.133100
2421 VDD VDD:2422 0.129300
2422 VDD VDD:2423 0.162100
2423 VDD VDD:2424 0.169100
2424 VDD VDD:2425 0.196600
2425 VDD VDD:2426 0.197600
2426 VDD VDD:2427 0.173600
2427 VDD VDD:2428 0.258200
2428 VDD VDD:2429 0.117400
2429 VDD VDD:2430 0.081700
2430 VDD VDD:2431 0.299400
2431 VDD VDD:2432 0.017300
2432 VDD VDD:2433 0.050100
2433 VDD VDD:2434 0.235600
2434 VDD VDD:2435 0.011500
2435 VDD VDD:2436 0.170500
2436 VDD VDD:2437 0.182900
2437 VDD VDD:2438 0.250600
2438 VDD VDD:2439 0.247100
2439 VDD VDD:2440 0.287500
2440 VDD VDD:2441 0.284400
2441 VDD VDD:2442 0.259300
2442 VDD VDD:2443 0.262000
2443 VDD VDD:2444 0.157000
2444 VDD VDD:2445 0.273600
2445 VDD VDD:2446 0.265600
2446 VDD VDD:2447 0.132600
2447 VDD VDD:2448 0.130000
2448 VDD VDD:2449 0.168700
2449 VDD VDD:2450 0.171600
2450 VDD VDD:2451 0.174600
2451 VDD VDD:2452 0.101600
2452 VDD VDD:2453 0.104500
2453 VDD VDD:2454 0.175100
2454 VDD VDD:2455 0.210500
2455 VDD VDD:2456 0.214400
2456 VDD VDD:2457 0.095400
2457 VDD VDD:2458 0.098800
2458 VDD VDD:2459 0.175600
2459 VDD VDD:2460 0.175900
2460 VDD VDD:2461 0.185500
2461 VDD VDD:2462 0.181700
2462 VDD VDD:2463 0.160900
2463 VDD VDD:2464 0.164700
2464 VDD VDD:2465 0.171500
2465 VDD VDD:2466 0.167800
2466 VDD VDD:2467 0.128200
2467 VDD VDD:2468 0.132200
2468 VDD VDD:2469 0.135400
2469 VDD VDD:2470 0.138600
2470 VDD VDD:2471 0.225500
2471 VDD VDD:2472 0.229400
2472 VDD VDD:2473 0.195000
2473 VDD VDD:2474 0.191100
2474 VDD VDD:2475 0.125400
2475 VDD VDD:2476 0.129500
2476 VDD VDD:2477 0.185700
2477 VDD VDD:2478 0.180900
2478 VDD VDD:2479 0.206400
2479 VDD VDD:2480 0.210900
2480 VDD VDD:2481 0.077600
2481 VDD VDD:2482 0.078900
2482 VDD VDD:2483 0.218900
2483 VDD VDD:2484 0.109300
2484 VDD VDD:2485 0.193400
2485 VDD VDD:2486 0.196500
2486 VDD VDD:2487 0.159800
2487 VDD VDD:2488 0.111700
2488 VDD VDD:2489 0.222100
2489 VDD VDD:2490 0.276300
2490 VDD VDD:2491 0.259900
2491 VDD VDD:2492 0.256300
2492 VDD VDD:2493 0.082100
2493 VDD VDD:2494 0.080700
2494 VDD VDD:2495 0.081800
2495 VDD VDD:2496 0.081400
2496 VDD VDD:2497 0.057800
2497 VDD VDD:2498 0.053400
2498 VDD VDD:2499 0.082700
2499 VDD VDD:2500 0.086400
2500 VDD VDD:2501 0.101100
2501 VDD VDD:2502 0.103300
2502 VDD VDD:2503 0.131400
2503 VDD VDD:2504 0.089000
2504 VDD VDD:2505 0.087400
2505 VDD VDD:2506 0.032900
2506 VDD VDD:2507 0.029900
2507 VDD VDD:2508 0.200900
2508 VDD VDD:2509 0.194600
2509 VDD VDD:2510 0.151200
2510 VDD VDD:2511 0.188400
2511 VDD VDD:2512 0.160200
2512 VDD VDD:2513 0.172900
2513 VDD VDD:2514 0.166800
2514 VDD VDD:2515 0.160600
2515 VDD VDD:2516 0.225800
2516 VDD VDD:2517 0.207100
2517 VDD VDD:2518 0.154500
2518 VDD VDD:2519 0.213300
2519 VDD VDD:2520 0.136400
2520 VDD VDD:2521 0.164900
2521 VDD VDD:2522 0.169700
2522 VDD VDD:2523 0.219600
2523 VDD VDD:2524 0.142400
2524 VDD VDD:2525 0.148400
2525 VDD VDD:2526 0.155700
2526 VDD VDD:2527 0.177400
2527 VDD VDD:2528 0.183200
2528 VDD VDD:2529 0.189000
2529 VDD VDD:2530 0.174600
2530 VDD VDD:2531 0.176200
2531 VDD VDD:2532 0.191500
2532 VDD VDD:2533 0.177100
2533 VDD VDD:2534 0.149100
2534 VDD VDD:2535 0.147000
2535 VDD VDD:2536 0.204000
2536 VDD VDD:2537 0.176000
2537 VDD VDD:2538 0.169800
2538 VDD VDD:2539 0.163700
2539 VDD VDD:2540 0.179400
2540 VDD VDD:2541 0.157600
2541 VDD VDD:2542 0.229000
2542 VDD VDD:2543 0.210200
2543 VDD VDD:2544 0.139400
2544 VDD VDD:2545 0.162500
2545 VDD VDD:2546 0.167300
2546 VDD VDD:2547 0.172100
2547 VDD VDD:2548 0.216400
2548 VDD VDD:2549 0.157900
2549 VDD VDD:2550 0.145400
2550 VDD VDD:2551 0.151500
2551 VDD VDD:2552 0.222700
2552 VDD VDD:2553 0.174500
2553 VDD VDD:2554 0.180300
2554 VDD VDD:2555 0.186100
2555 VDD VDD:2556 0.153400
2556 VDD VDD:2557 0.197700
2557 VDD VDD:2558 0.132100
2558 VDD VDD:2559 0.129700
2559 VDD VDD:2560 0.254700
2560 VDD VDD:2561 0.227300
2561 VDD VDD:2562 0.231700
2562 VDD VDD:2563 0.120600
2563 VDD VDD:2564 0.184300
2564 VDD VDD:2565 0.089600
2565 VDD VDD:2566 0.173500
2566 VDD VDD:2567 0.095000
2567 VDD VDD:2568 0.079000
2568 VDD VDD:2569 0.294300
2569 VDD VDD:2570 0.109800
2570 VDD VDD:2571 0.108700
2571 VDD VDD:2572 0.101700
2572 VDD VDD:2573 0.187400
2573 VDD VDD:2574 0.175100
2574 VDD VDD:2575 0.264700
2575 VDD VDD:2576 0.233400
2576 VDD VDD:2577 0.082300
2577 VDD VDD:2578 0.240300
2578 VDD VDD:2579 0.106700
2579 VDD VDD:2580 0.304100
2580 VDD VDD:2581 0.124300
2581 VDD VDD:2582 0.098200
2582 VDD VDD:2583 0.186400
2583 VDD VDD:2584 0.301300
2584 VDD VDD:2585 0.231600
2585 VDD VDD:2586 0.081200
2586 VDD VDD:2587 0.103300
2587 VDD VDD:2588 0.237700
2588 VDD VDD:2589 0.261800
2589 VDD VDD:2590 0.123100
2590 VDD VDD:2591 0.174600
2591 VDD VDD:2592 0.221100
2592 VDD VDD:2593 0.216700
2593 VDD VDD:2594 0.048300
2594 VDD VDD:2595 0.047700
2595 VDD VDD:2596 0.202500
2596 VDD VDD:2597 0.204900
2597 VDD VDD:2598 0.079700
2598 VDD VDD:2599 0.205100
2599 VDD VDD:2600 0.190200
2600 VDD VDD:2601 0.246700
2601 VDD VDD:2602 0.107200
2602 VDD VDD:2603 0.024200
2603 VDD VDD:2604 0.250800
2604 VDD VDD:2605 0.192500
2605 VDD VDD:2606 0.209300
2606 VDD VDD:2607 0.075600
2607 VDD VDD:2608 0.020300
2608 VDD VDD:2609 0.111400
2609 VDD VDD:2610 0.185900
2610 VDD VDD:2611 0.182100
2611 VDD VDD:2612 0.040600
2612 VDD VDD:2613 0.041200
2613 VDD VDD:2614 0.153000
2614 VDD VDD:2615 0.150900
2615 VDD VDD:2616 0.220600
2616 VDD VDD:2617 0.107600
2617 VDD VDD:2618 0.184800
2618 VDD VDD:2619 0.079200
2619 VDD VDD:2620 0.118800
2620 VDD VDD:2621 0.074700
2621 VDD VDD:2622 0.103200
2622 VDD VDD:2623 0.216000
2623 VDD VDD:2624 0.115200
2624 VDD VDD:2625 0.180500
2625 VDD VDD:2626 0.160100
2626 VDD VDD:2627 0.158300
2627 VDD VDD:2628 0.199200
2628 VDD VDD:2629 0.201700
2629 VDD VDD:2630 0.218800
2630 VDD VDD:2631 0.221400
2631 VDD VDD:2632 0.171600
2632 VDD VDD:2633 0.175800
2633 VDD VDD:2634 0.216300
2634 VDD VDD:2635 0.167600
2635 VDD VDD:2636 0.211300
2636 VDD VDD:2637 0.169500
2637 VDD VDD:2638 0.173600
2638 VDD VDD:2639 0.208800
2639 VDD VDD:2640 0.165600
2640 VDD VDD:2641 0.213700
2641 VDD VDD:2642 0.162000
2642 VDD VDD:2643 0.204200
2643 VDD VDD:2644 0.073600
2644 VDD VDD:2645 0.201600
2645 VDD VDD:2646 0.072600
2646 VDD VDD:2647 0.141700
2647 VDD VDD:2648 0.186100
2648 VDD VDD:2649 0.208000
2649 VDD VDD:2650 0.146100
2650 VDD VDD:2651 0.175600
2651 VDD VDD:2652 0.169800
2652 VDD VDD:2653 0.195200
2653 VDD VDD:2654 0.075200
2654 VDD VDD:2655 0.150700
2655 VDD VDD:2656 0.216000
2656 VDD VDD:2657 0.214000
2657 VDD VDD:2658 0.198400
2658 VDD VDD:2659 0.073000
2659 VDD VDD:2660 0.139500
2660 VDD VDD:2661 0.143900
2661 VDD VDD:2662 0.186900
2662 VDD VDD:2663 0.204800
2663 VDD VDD:2664 0.148400
2664 VDD VDD:2665 0.072300
2665 VDD VDD:2666 0.172800
2666 VDD VDD:2667 0.173000
2667 VDD VDD:2668 0.074300
2668 VDD VDD:2669 0.192000
2669 VDD VDD:2670 0.177600
2670 VDD VDD:2671 0.159100
2671 VDD VDD:2672 0.176400
2672 VDD VDD:2673 0.221900
2673 VDD VDD:2674 0.224300
2674 VDD VDD:2675 0.136500
2675 VDD VDD:2676 0.136300
2676 VDD VDD:2677 0.212200
2677 VDD VDD:2678 0.209600
2678 VDD VDD:2679 0.116500
2679 VDD VDD:2680 0.216300
2680 VDD VDD:2681 0.220700
2681 VDD VDD:2682 0.059400
2682 VDD VDD:2683 0.113200
2683 VDD VDD:2684 0.055000
2684 VDD VDD:2685 0.224200
2685 VDD VDD:2686 0.211800
2686 VDD VDD:2687 0.094200
2687 VDD VDD:2688 0.198500
2688 VDD VDD:2689 0.128200
2689 VDD VDD:2690 0.209900
2690 VDD VDD:2691 0.130800
2691 VDD VDD:2692 0.144300
2692 VDD VDD:2693 0.122500
2693 VDD VDD:2694 0.235600
2694 VDD VDD:2695 0.231300
2695 VDD VDD:2696 0.074000
2696 VDD VDD:2697 0.142300
2697 VDD VDD:2698 0.147700
2698 VDD VDD:2699 0.194100
2699 VDD VDD:2700 0.161600
2700 VDD VDD:2701 0.164700
2701 VDD VDD:2702 0.107300
2702 VDD VDD:2703 0.104500
2703 VDD VDD:2704 0.267300
2704 VDD VDD:2705 0.205800
2705 VDD VDD:2706 0.208300
2706 VDD VDD:2707 0.032100
2707 VDD VDD:2708 0.026100
2708 VDD VDD:2709 0.027900
2709 VDD VDD:2710 0.029700
2710 VDD VDD:2711 0.255400
2711 VDD VDD:2712 0.258200
2712 VDD VDD:2713 0.246900
2713 VDD VDD:2714 0.250900
2714 VDD VDD:2715 0.160800
2715 VDD VDD:2716 0.172100
2716 VDD VDD:2717 0.206800
2717 VDD VDD:2718 0.183700
2718 VDD VDD:2719 0.229700
2719 VDD VDD:2720 0.078600
2720 VDD VDD:2721 0.173300
2721 VDD VDD:2722 0.092200
2722 VDD VDD:2723 0.086800
2723 VDD VDD:2724 0.119900
2724 VDD VDD:2725 0.225900
2725 VDD VDD:2726 0.114600
2726 VDD VDD:2727 0.113300
2727 VDD VDD:2728 0.121900
2728 VDD VDD:2729 0.168300
2729 VDD VDD:2730 0.292000
2730 VDD VDD:2731 0.252400
2731 VDD VDD:2732 0.165900
2732 VDD VDD:2733 0.186700
2733 VDD VDD:2734 0.192800
2734 VDD VDD:2735 0.198900
2735 VDD VDD:2736 0.202000
2736 VDD VDD:2737 0.176500
2737 VDD VDD:2738 0.092600
2738 VDD VDD:2739 0.207400
2739 VDD VDD:2740 0.125100
2740 VDD VDD:2741 0.171100
2741 VDD VDD:2742 0.183600
2742 VDD VDD:2743 0.128200
2743 VDD VDD:2744 0.189700
2744 VDD VDD:2745 0.195900
2745 VDD VDD:2746 0.177200
2746 VDD VDD:2747 0.089800
2747 VDD VDD:2748 0.204300
2748 VDD VDD:2749 0.210100
2749 VDD VDD:2750 0.210700
2750 VDD VDD:2751 0.173900
2751 VDD VDD:2752 0.176800
2752 VDD VDD:2753 0.163000
2753 VDD VDD:2754 0.211300
2754 VDD VDD:2755 0.212700
2755 VDD VDD:2756 0.195400
2756 VDD VDD:2757 0.264100
2757 VDD VDD:2758 0.145400
2758 VDD VDD:2759 0.226800
2759 VDD VDD:2760 0.214200
2760 VDD VDD:2761 0.220600
2761 VDD VDD:2762 0.234800
2762 VDD VDD:2763 0.139600
2763 VDD VDD:2764 0.167200
2764 VDD VDD:2765 0.163800
2765 VDD VDD:2766 0.163500
2766 VDD VDD:2767 0.238200
2767 VDD VDD:2768 0.206400
2768 VDD VDD:2769 0.171100
2769 VDD VDD:2770 0.262300
2770 VDD VDD:2771 0.240000
2771 VDD VDD:2772 0.215100
2772 VDD VDD:2773 0.215900
2773 VDD VDD:2774 0.213400
2774 VDD VDD:2775 0.223700
2775 VDD VDD:2776 0.217500
2776 VDD VDD:2777 0.169100
2777 VDD VDD:2778 0.260300
2778 VDD VDD:2779 0.167900
2779 VDD VDD:2780 0.236500
2780 VDD VDD:2781 0.165300
2781 VDD VDD:2782 0.245000
2782 VDD VDD:2783 0.174800
2783 VDD VDD:2784 0.192500
2784 VDD VDD:2785 0.207300
2785 VDD VDD:2786 0.207100
2786 VDD VDD:2787 0.247000
2787 VDD VDD:2788 0.248000
2788 VDD VDD:2789 0.250200
2789 VDD VDD:2790 0.253300
2790 VDD VDD:2791 0.249200
2791 VDD VDD:2792 0.251000
2792 VDD VDD:2793 0.057700
2793 VDD VDD:2794 0.054800
2794 VDD VDD:2795 0.146000
2795 VDD VDD:2796 0.148800
2796 VDD VDD:2797 0.262900
2797 VDD VDD:2798 0.140600
2798 VDD VDD:2799 0.163400
2799 VDD VDD:2800 0.072800
2800 VDD VDD:2801 0.147200
2801 VDD VDD:2802 0.027000
2802 VDD VDD:2803 0.127500
2803 VDD VDD:2804 0.141100
2804 VDD VDD:2805 0.160400
2805 VDD VDD:2806 0.187300
2806 VDD VDD:2807 0.131100
2807 VDD VDD:2808 0.192000
2808 VDD VDD:2809 0.202400
2809 VDD VDD:2810 0.196600
2810 VDD VDD:2811 0.126500
2811 VDD VDD:2812 0.122600
2812 VDD VDD:2813 0.190900
2813 VDD VDD:2814 0.205700
2814 VDD VDD:2815 0.082800
2815 VDD VDD:2816 0.085500
2816 VDD VDD:2817 0.009700
2817 VDD VDD:2818 0.009700
2818 VDD VDD:2819 0.018300
2819 VDD VDD:2820 0.145800
2820 VDD VDD:2821 0.206800
2821 VDD VDD:2822 0.152400
2822 VDD VDD:2823 0.186200
2823 VDD VDD:2824 0.184000
2824 VDD VDD:2825 0.178700
2825 VDD VDD:2826 0.131200
2826 VDD VDD:2827 0.172300
2827 VDD VDD:2828 0.156200
2828 VDD VDD:2829 0.159100
2829 VDD VDD:2830 0.134300
2830 VDD VDD:2831 0.119000
2831 VDD VDD:2832 0.164700
2832 VDD VDD:2833 0.125700
2833 VDD VDD:2834 0.208300
2834 VDD VDD:2835 0.075600
2835 VDD VDD:2836 0.020000
2836 VDD VDD:2837 0.143900
2837 VDD VDD:2838 0.029800
2838 VDD VDD:2839 0.157400
2839 VDD VDD:2840 0.144000
2840 VDD VDD:2841 0.129500
2841 VDD VDD:2842 0.205400
2842 VDD VDD:2843 0.199500
2843 VDD VDD:2844 0.128500
2844 VDD VDD:2845 0.124500
2845 VDD VDD:2846 0.193700
2846 VDD VDD:2847 0.084100
2847 VDD VDD:2848 0.137300
2848 VDD VDD:2849 0.087000
2849 VDD VDD:2850 0.009100
2850 VDD VDD:2851 0.194400
2851 VDD VDD:2852 0.011400
2852 VDD VDD:2853 0.142600
2853 VDD VDD:2854 0.149100
2854 VDD VDD:2855 0.154800
2855 VDD VDD:2856 0.187400
2856 VDD VDD:2857 0.185100
2857 VDD VDD:2858 0.181900
2858 VDD VDD:2859 0.175500
2859 VDD VDD:2860 0.129400
2860 VDD VDD:2861 0.157600
2861 VDD VDD:2862 0.132700
2862 VDD VDD:2863 0.189600
2863 VDD VDD:2864 0.167400
2864 VDD VDD:2865 0.120800
2865 VDD VDD:2866 0.246700
2866 VDD VDD:2867 0.246100
2867 VDD VDD:2868 0.258400
2868 VDD VDD:2869 0.260100
2869 VDD VDD:2870 0.170700
2870 VDD VDD:2871 0.310600
2871 VDD VDD:2872 0.246500
2872 VDD VDD:2873 0.184400
2873 VDD VDD:2874 0.161700
2874 VDD VDD:2875 0.284900
2875 VDD VDD:2876 0.228400
2876 VDD VDD:2877 0.167700
2877 VDD VDD:2878 0.236300
2878 VDD VDD:2879 0.238100
2879 VDD VDD:2880 0.277900
2880 VDD VDD:2881 0.195200
2881 VDD VDD:2882 0.141100
2882 VDD VDD:2883 0.188300
2883 VDD VDD:2884 0.205500
2884 VDD VDD:2885 0.046800
2885 VDD VDD:2886 0.114200
2886 VDD VDD:2887 0.307200
2887 VDD VDD:2888 0.263600
2888 VDD VDD:2889 0.264000
2889 VDD VDD:2890 0.240500
2890 VDD VDD:2891 0.224300
2891 VDD VDD:2892 0.267600
2892 VDD VDD:2893 0.233400
2893 VDD VDD:2894 0.046000
2894 VDD VDD:2895 0.281800
2895 VDD VDD:2896 0.170200
2896 VDD VDD:2897 0.191800
2897 VDD VDD:2898 0.244300
2898 VDD VDD:2899 0.281600
2899 VDD VDD:2900 0.313900
2900 VDD VDD:2901 0.114700
2901 VDD VDD:2902 0.140800
2902 VDD VDD:2903 0.311100
2903 VDD VDD:2904 0.192500
2904 VDD VDD:2905 0.168400
2905 VDD VDD:2906 0.205100
2906 VDD VDD:2907 0.260600
2907 VDD VDD:2908 0.157800
2908 VDD VDD:2909 0.183000
2909 VDD VDD:2910 0.201500
2910 VDD VDD:2911 0.077200
2911 VDD VDD:2912 0.200800
2912 VDD VDD:2913 0.202300
2913 VDD VDD:2914 0.133500
2914 VDD VDD:2915 0.125600
2915 VDD VDD:2916 0.130600
2916 VDD VDD:2917 0.207600
2917 VDD VDD:2918 0.234500
2918 VDD VDD:2919 0.238800
2919 VDD VDD:2920 0.143200
2920 VDD VDD:2921 0.097400
2921 VDD VDD:2922 0.267500
2922 VDD VDD:2923 0.268200
2923 VDD VDD:2924 0.221900
2924 VDD VDD:2925 0.262400
2925 VDD VDD:2926 0.302500
2926 VDD VDD:2927 0.212700
2927 VDD VDD:2928 0.209900
2928 VDD VDD:2929 0.065300
2929 VDD VDD:2930 0.265000
2930 VDD VDD:2931 0.172800
2931 VDD VDD:2932 0.110000
2932 VDD VDD:2933 0.113200
2933 VDD VDD:2934 0.198600
2934 VDD VDD:2935 0.259500
2935 VDD VDD:2936 0.208900
2936 VDD VDD:2937 0.174200
2937 VDD VDD:2938 0.224500
2938 VDD VDD:2939 0.198400
2939 VDD VDD:2940 0.093000
2940 VDD VDD:2941 0.261200
2941 VDD VDD:2942 0.175400
2942 VDD VDD:2943 0.296300
2943 VDD VDD:2944 0.231100
2944 VDD VDD:2945 0.148400
2945 VDD VDD:2946 0.294700
2946 VDD VDD:2947 0.190000
2947 VDD VDD:2948 0.260500
2948 VDD VDD:2949 0.256800
2949 VDD VDD:2950 0.208100
2950 VDD VDD:2951 0.104800
2951 VDD VDD:2952 0.207100
2952 VDD VDD:2953 0.143600
2953 VDD VDD:2954 0.116700
2954 VDD VDD:2955 0.182100
2955 VDD VDD:2956 0.265900
2956 VDD VDD:2957 0.121800
2957 VDD VDD:2958 0.160400
2958 VDD VDD:2959 0.242300
2959 VDD VDD:2960 0.154300
2960 VDD VDD:2961 0.058500
2961 VDD VDD:2962 0.250200
2962 VDD VDD:2963 0.264800
2963 VDD VDD:2964 0.264400
2964 VDD VDD:2965 0.052500
2965 VDD VDD:2966 0.254800
2966 VDD VDD:2967 0.038700
2967 VDD VDD:2968 0.245900
2968 VDD VDD:2969 0.151800
2969 VDD VDD:2970 0.243300
2970 VDD VDD:2971 0.030100
2971 VDD VDD:2972 0.198200
2972 VDD VDD:2973 0.276100
2973 VDD VDD:2974 0.251300
2974 VDD VDD:2975 0.300000
2975 VDD VDD:2976 0.071600
2976 VDD VDD:2977 0.121800
2977 VDD VDD:2978 0.299900
2978 VDD VDD:2979 0.168200
2979 VDD VDD:2980 0.121200
2980 VDD VDD:2981 0.100600
2981 VDD VDD:2982 0.178600
2982 VDD VDD:2983 0.188600
2983 VDD VDD:2984 0.297500
2984 VDD VDD:2985 0.293700
2985 VDD VDD:2986 0.253800
2986 VDD VDD:2987 0.172300
2987 VDD VDD:2988 0.263700
2988 VDD VDD:2989 0.261100
2989 VDD VDD:2990 0.107500
2990 VDD VDD:2991 0.207400
2991 VDD VDD:2992 0.253600
2992 VDD VDD:2993 0.204400
2993 VDD VDD:2994 0.232600
2994 VDD VDD:2995 0.121800
2995 VDD VDD:2996 0.113900
2996 VDD VDD:2997 0.142900
2997 VDD VDD:2998 0.182100
2998 VDD VDD:2999 0.206600
2999 VDD VDD:3000 0.198200
3000 VDD VDD:3001 0.119600
3001 VDD VDD:3002 0.227300
3002 VDD VDD:3003 0.150300
3003 VDD VDD:3004 0.102200
3004 VDD VDD:3005 0.264500
3005 VDD VDD:3006 0.177400
3006 VDD VDD:3007 0.162000
3007 VDD VDD:3008 0.057500
3008 VDD VDD:3009 0.155100
3009 VDD VDD:3010 0.239100
3010 VDD VDD:3011 0.253200
3011 VDD VDD:3012 0.262700
3012 VDD VDD:3013 0.265000
3013 VDD VDD:3014 0.113300
3014 VDD VDD:3015 0.051000
3015 VDD VDD:3016 0.252800
3016 VDD VDD:3017 0.041900
3017 VDD VDD:3018 0.243700
3018 VDD VDD:3019 0.151400
3019 VDD VDD:3020 0.108900
3020 VDD VDD:3021 0.208300
3021 VDD VDD:3022 0.171900
3022 VDD VDD:3023 0.262500
3023 VDD VDD:3024 0.240600
3024 VDD VDD:3025 0.302600
3025 VDD VDD:3026 0.091900
3026 VDD VDD:3027 0.028300
3027 VDD VDD:3028 0.267900
3028 VDD VDD:3029 0.195400
3029 VDD VDD:3030 0.215000
3030 VDD VDD:3031 0.273400
3031 VDD VDD:3032 0.299900
3032 VDD VDD:3033 0.067100
3033 VDD VDD:3034 0.302400
3034 VDD VDD:3035 0.068600
3035 VDD VDD:3036 0.176700
3036 VDD VDD:3037 0.265500
3037 VDD VDD:3038 0.124800
3038 VDD VDD:3039 0.220400
3039 VDD VDD:3040 0.201200
3040 VDD VDD:3041 0.168700
3041 VDD VDD:3042 0.264700
3042 VDD VDD:3043 0.265300
3043 VDD VDD:3044 0.243600
3044 VDD VDD:3045 0.112400
3045 VDD VDD:3046 0.055700
3046 VDD VDD:3047 0.150600
3047 VDD VDD:3048 0.274600
3048 VDD VDD:3049 0.073700
3049 VDD VDD:3050 0.104500
3050 VDD VDD:3051 0.260900
3051 VDD VDD:3052 0.273600
3052 VDD VDD:3053 0.197600
3053 VDD VDD:3054 0.222900
3054 VDD VDD:3055 0.105700
3055 VDD VDD:3056 0.157200
3056 VDD VDD:3057 0.117000
3057 VDD VDD:3058 0.237100
3058 VDD VDD:3059 0.186200
3059 VDD VDD:3060 0.261300
3060 VDD VDD:3061 0.254800
3061 VDD VDD:3062 0.024200
3062 VDD VDD:3063 0.169400
3063 VDD VDD:3064 0.199300
3064 VDD VDD:3065 0.171100
3065 VDD VDD:3066 0.052600
3066 VDD VDD:3067 0.267100
3067 VDD VDD:3068 0.058500
3068 VDD VDD:3069 0.312200
3069 VDD VDD:3070 0.276300
3070 VDD VDD:3071 0.135300
3071 VDD VDD:3072 0.108300
3072 VDD VDD:3073 0.203200
3073 VDD VDD:3074 0.210100
3074 VDD VDD:3075 0.215800
3075 VDD VDD:3076 0.158100
3076 VDD VDD:3077 0.182600
3077 VDD VDD:3078 0.124700
3078 VDD VDD:3079 0.291300
3079 VDD VDD:3080 0.231700
3080 VDD VDD:3081 0.089100
3081 VDD VDD:3082 0.023700
3082 VDD VDD:3083 0.213500
3083 VDD VDD:3084 0.201300
3084 VDD VDD:3085 0.139300
3085 VDD VDD:3086 0.261100
3086 VDD VDD:3087 0.125900
3087 VDD VDD:3088 0.214300
3088 VDD VDD:3089 0.278700
3089 VDD VDD:3090 0.110800
3090 VDD VDD:3091 0.280500
3091 VDD VDD:3092 0.159900
3092 VDD VDD:3093 0.105000
3093 VDD VDD:3094 0.100900
3094 VDD VDD:3095 0.315800
3095 VDD VDD:3096 0.088100
3096 VDD VDD:3097 0.277800
3097 VDD VDD:3098 0.264200
3098 VDD VDD:3099 0.076500
3099 VDD VDD:3100 0.109700
3100 VDD VDD:3101 0.120700
3101 VDD VDD:3102 0.268200
3102 VDD VDD:3103 0.159300
3103 VDD VDD:3104 0.054600
3104 VDD VDD:3105 0.055400
3105 VDD VDD:3106 0.241000
3106 VDD VDD:3107 0.226000
3107 VDD VDD:3108 0.172300
3108 VDD VDD:3109 0.150300
3109 VDD VDD:3110 0.182800
3110 VDD VDD:3111 0.196500
3111 VDD VDD:3112 0.251700
3112 VDD VDD:3113 0.228300
3113 VDD VDD:3114 0.168800
3114 VDD VDD:3115 0.182800
3115 VDD VDD:3116 0.197700
3116 VDD VDD:3117 0.239600
3117 VDD VDD:3118 0.056800
3118 VDD VDD:3119 0.288000
3119 VDD VDD:3120 0.272700
3120 VDD VDD:3121 0.273600
3121 VDD VDD:3122 0.021300
3122 VDD VDD:3123 0.273800
3123 VDD VDD:3124 0.118300
3124 VDD VDD:3125 0.064400
3125 VDD VDD:3126 0.104900
3126 VDD VDD:3127 0.273900
3127 VDD VDD:3128 0.132900
3128 VDD VDD:3129 0.089400
3129 VDD VDD:3130 0.066000
3130 VDD VDD:3131 0.137700
3131 VDD VDD:3132 0.189400
3132 VDD VDD:3133 0.278100
3133 VDD VDD:3134 0.134900
3134 VDD VDD:3135 0.082100
3135 VDD VDD:3136 0.199100
3136 VDD VDD:3137 0.221600
3137 VDD VDD:3138 0.092300
3138 VDD VDD:3139 0.057200
3139 VDD VDD:3140 0.152800
3140 VDD VDD:3141 0.145800
3141 VDD VDD:3142 0.118300
3142 VDD VDD:3143 0.317000
3143 VDD VDD:3144 0.113900
3144 VDD VDD:3145 0.231300
3145 VDD VDD:3146 0.183900
3146 VDD VDD:3147 0.150000
3147 VDD VDD:3148 0.154700
3148 VDD VDD:3149 0.266700
3149 VDD VDD:3150 0.089000
3150 VDD VDD:3151 0.258600
3151 VDD VDD:3152 0.292400
3152 VDD VDD:3153 0.150700
3153 VDD VDD:3154 0.100300
3154 VDD VDD:3155 0.043400
3155 VDD VDD:3156 0.095900
3156 VDD VDD:3157 0.262600
3157 VDD VDD:3158 0.192100
3158 VDD VDD:3159 0.260400
3159 VDD VDD:3160 0.138200
3160 VDD VDD:3161 0.193300
3161 VDD VDD:3162 0.155900
3162 VDD VDD:3163 0.116300
3163 VDD VDD:3164 0.223200
3164 VDD VDD:3165 0.166800
3165 VDD VDD:3166 0.213300
3166 VDD VDD:3167 0.194200
3167 VDD VDD:3168 0.075700
3168 VDD VDD:3169 0.201500
3169 VDD VDD:3170 0.182500
3170 VDD VDD:3171 0.208700
3171 VDD VDD:3172 0.241200
3172 VDD VDD:3173 0.283800
3173 VDD VDD:3174 0.214300
3174 VDD VDD:3175 0.248600
3175 VDD VDD:3176 0.279000
3176 VDD VDD:3177 0.263300
3177 VDD VDD:3178 0.199700
3178 VDD VDD:3179 0.253500
3179 VDD VDD:3180 0.244400
3180 VDD VDD:3181 0.223500
3181 VDD VDD:3182 0.144300
3182 VDD VDD:3183 0.219100
3183 VDD VDD:3184 0.219400
3184 VDD VDD:3185 0.232700
3185 VDD VDD:3186 0.257700
3186 VDD VDD:3187 0.179300
3187 VDD VDD:3188 0.259100
3188 VDD VDD:3189 0.311700
3189 VDD VDD:3190 0.242200
3190 VDD VDD:3191 0.149400
3191 VDD VDD:3192 0.287200
3192 VDD VDD:3193 0.238600
3193 VDD VDD:3194 0.062200
3194 VDD VDD:3195 0.212400
3195 VDD VDD:3196 0.190200
3196 VDD VDD:3197 0.159100
3197 VDD VDD:3198 0.139300
3198 VDD VDD:3199 0.216400
3199 VDD VDD:3200 0.229700
3200 VDD VDD:3201 0.281800
3201 VDD VDD:3202 0.251500
3202 VDD VDD:3203 0.220400
3203 VDD VDD:3204 0.187400
3204 VDD VDD:3205 0.256200
3205 VDD VDD:3206 0.147200
3206 VDD VDD:3207 0.314400
3207 VDD VDD:3208 0.289500
3208 VDD VDD:3209 0.263000
3209 VDD VDD:3210 0.244400
3210 VDD VDD:3211 0.250300
3211 VDD VDD:3212 0.256400
3212 VDD VDD:3213 0.254500
3213 VDD VDD:3214 0.245400
3214 VDD VDD:3215 0.116800
3215 VDD VDD:3216 0.154100
3216 VDD VDD:3217 0.153900
3217 VDD VDD:3218 0.240700
3218 VDD VDD:3219 0.093400
3219 VDD VDD:3220 0.138900
3220 VDD VDD:3221 0.257200
3221 VDD VDD:3222 0.024300
3222 VDD VDD:3223 0.178200
3223 VDD VDD:3224 0.275600
3224 VDD VDD:3225 0.151100
3225 VDD VDD:3226 0.309100
3226 VDD VDD:3227 0.193400
3227 VDD VDD:3228 0.247500
3228 VDD VDD:3229 0.272300
3229 VDD VDD:3230 0.217300
3230 VDD VDD:3231 0.081600
3231 VDD VDD:3232 0.130000
3232 VDD VDD:3233 0.270900
3233 VDD VDD:3234 0.235800
3234 VDD VDD:3235 0.286600
3235 VDD VDD:3236 0.141100
3236 VDD VDD:3237 0.058200
3237 VDD VDD:3238 0.197500
3238 VDD VDD:3239 0.132400
3239 VDD VDD:3240 0.211400
3240 VDD VDD:3241 0.211500
3241 VDD VDD:3242 0.118500
3242 VDD VDD:3243 0.092000
3243 VDD VDD:3244 0.224800
3244 VDD VDD:3245 0.072500
3245 VDD VDD:3246 0.113100
3246 VDD VDD:3247 0.289500
3247 VDD VDD:3248 0.219200
3248 VDD VDD:3249 0.167000
3249 VDD VDD:3250 0.182200
3250 VDD VDD:3251 0.040800
3251 VDD VDD:3252 0.085900
3252 VDD VDD:3253 0.143200
3253 VDD VDD:3254 0.098700
3254 VDD VDD:3255 0.092800
3255 VDD VDD:3256 0.064300
3256 VDD VDD:3257 0.264600
3257 VDD VDD:3258 0.113500
3258 VDD VDD:3259 0.107800
3259 VDD VDD:3260 0.196400
3260 VDD VDD:3261 0.148300
3261 VDD VDD:3262 0.186400
3262 VDD VDD:3263 0.201000
3263 VDD VDD:3264 0.263000
3264 VDD VDD:3265 0.201900
3265 VDD VDD:3266 0.181100
3266 VDD VDD:3267 0.157600
3267 VDD VDD:3268 0.184300
3268 VDD VDD:3269 0.185800
3269 VDD VDD:3270 0.173600
3270 VDD VDD:3271 0.241900
3271 VDD VDD:3272 0.196000
3272 VDD VDD:3273 0.191900
3273 VDD VDD:3274 0.194900
3274 VDD VDD:3275 0.180500
*END

*D_NET VSS 538.539215
*CONN
*P VSS B
*CAP
1 VSS 521.492195
2 VSS _001_ 0.032915
3 VSS _002_ 0.014875
4 VSS _003_ 0.010578
5 VSS _005_ 0.088918
6 VSS _006_ 0.012396
7 VSS _007_ 0.029750
8 VSS _008_ 0.074374
9 VSS _009_ 0.014875
10 VSS _010_ 0.088918
11 VSS _011_ 0.029750
12 VSS _012_ 0.109389
13 VSS _014_ 0.014875
14 VSS _015_ 0.014875
15 VSS _016_ 0.014875
16 VSS _017_ 0.019802
17 VSS _018_ 0.014875
18 VSS _019_ 0.014875
19 VSS _020_ 0.014875
20 VSS _022_ 0.014875
21 VSS _024_ 0.014875
22 VSS _025_ 0.017386
23 VSS _026_ 0.014875
24 VSS _027_ 0.014875
25 VSS _028_ 0.014875
26 VSS _029_ 0.014875
27 VSS _032_ 0.014875
28 VSS _034_ 0.014875
29 VSS _035_ 0.014875
30 VSS _037_ 0.014875
31 VSS _038_ 0.014875
32 VSS _039_ 0.014875
33 VSS _040_ 0.015686
34 VSS _042_ 0.014875
35 VSS _044_ 0.014875
36 VSS _045_ 0.064292
37 VSS _046_ 0.022731
38 VSS _047_ 0.014875
39 VSS _049_ 0.016827
40 VSS _050_ 0.050962
41 VSS _052_ 0.450169
42 VSS _053_ 0.760975
43 VSS _055_ 0.034690
44 VSS _056_ 0.014875
45 VSS _057_ 0.014875
46 VSS _058_ 0.018413
47 VSS _059_ 0.049693
48 VSS _060_ 0.074043
49 VSS _061_ 0.135896
50 VSS _062_ 0.044624
51 VSS _063_ 0.260144
52 VSS _064_ 0.051401
53 VSS _066_ 0.016725
54 VSS _067_ 0.017147
55 VSS _068_ 0.029750
56 VSS _069_ 0.033386
57 VSS _070_ 0.025932
58 VSS _072_ 0.017174
59 VSS _074_ 0.014875
60 VSS _075_ 0.064292
61 VSS _076_ 0.014875
62 VSS _077_ 0.029750
63 VSS _078_ 0.029750
64 VSS _079_ 0.014875
65 VSS _080_ 0.091954
66 VSS _082_ 0.014875
67 VSS _083_ 0.022235
68 VSS _084_ 0.191087
69 VSS _086_ 0.217808
70 VSS _089_ 0.163292
71 VSS _091_ 0.014875
72 VSS _092_ 0.356412
73 VSS _095_ 0.122280
74 VSS _096_ 0.193042
75 VSS _097_ 0.023785
76 VSS _098_ 0.045781
77 VSS _101_ 0.014875
78 VSS _102_ 0.026279
79 VSS _103_ 0.018378
80 VSS _105_ 0.003801
81 VSS _108_ 0.074043
82 VSS _109_ 0.040162
83 VSS _111_ 0.014875
84 VSS _112_ 0.014875
85 VSS _113_ 0.014875
86 VSS _114_ 0.014875
87 VSS _116_ 0.000763
88 VSS _118_ 0.029750
89 VSS _119_ 0.169939
90 VSS _120_ 0.138589
91 VSS _121_ 0.014875
92 VSS _123_ 0.055037
93 VSS _124_ 0.031072
94 VSS _125_ 0.014875
95 VSS _126_ 0.044624
96 VSS _127_ 0.016725
97 VSS _128_ 0.014875
98 VSS _129_ 0.014875
99 VSS _130_ 0.021155
100 VSS _131_ 0.016197
101 VSS _132_ 0.014875
102 VSS _133_ 0.029750
103 VSS _134_ 0.163694
104 VSS _135_ 0.037171
105 VSS _136_ 0.022894
106 VSS _137_ 0.014875
107 VSS _139_ 0.029750
108 VSS _140_ 0.029750
109 VSS _141_ 0.041098
110 VSS _143_ 0.091929
111 VSS _144_ 0.016108
112 VSS _145_ 0.016197
113 VSS _146_ 0.014875
114 VSS bus_reset 0.031600
115 VSS byte_idx[0] 0.164584
116 VSS byte_idx[1] 0.144628
117 VSS byte_idx[2] 0.211498
118 VSS byte_reg[0] 0.059499
119 VSS byte_reg[1] 0.018056
120 VSS byte_reg[2] 0.039771
121 VSS byte_reg[3] 0.030039
122 VSS byte_reg[4] 0.085887
123 VSS byte_reg[5] 0.060656
124 VSS byte_reg[6] 0.014875
125 VSS byte_reg[7] 0.014875
126 VSS clk 0.116102
127 VSS clknet_0_clk 0.503732
128 VSS clknet_3_0__leaf_clk 0.288241
129 VSS clknet_3_1__leaf_clk 0.379758
130 VSS clknet_3_2__leaf_clk 0.287020
131 VSS clknet_3_3__leaf_clk 0.349471
132 VSS clknet_3_4__leaf_clk 0.113109
133 VSS clknet_3_5__leaf_clk 0.205280
134 VSS clknet_3_6__leaf_clk 0.107962
135 VSS clknet_3_7__leaf_clk 0.217277
136 VSS dec_bit_level 0.014875
137 VSS dec_bit_strobe 0.014875
138 VSS dec_data_bit 0.069085
139 VSS dec_data_strobe 0.107208
140 VSS entering_sync 0.103793
141 VSS eop_pulse 0.014875
142 VSS first_byte 0.014875
143 VSS line_state[0] 0.283167
144 VSS line_state[1] 0.127878
145 VSS nrzi_level 0.141455
146 VSS raw_mode 0.124463
147 VSS rst_n 0.014875
148 VSS rx_assembly_en 0.033076
149 VSS rx_bit_valid 0.044624
150 VSS rx_bitcnt[0] 0.029750
151 VSS rx_bitcnt[2] 0.029750
152 VSS rx_out_bit 0.178647
153 VSS rx_receiving 0.312706
154 VSS rx_shift[1] 0.035447
155 VSS rx_shift[2] 0.075531
156 VSS rx_shift[3] 0.103793
157 VSS rx_shift[4] 0.044624
158 VSS rx_shift[5] 0.027270
159 VSS rx_shift[6] 0.170668
160 VSS rx_shift[7] 0.103793
161 VSS rx_stuff_err 0.029750
162 VSS rxdm 0.020093
163 VSS stuff_bit_out 0.089959
164 VSS stuff_consume 0.157068
165 VSS stuff_pending_after 0.062031
166 VSS sync_idx[0] 0.029750
167 VSS sync_idx[1] 0.112590
168 VSS sync_idx[2] 0.014875
169 VSS sync_next 0.088918
170 VSS tx_body_active 0.200910
171 VSS tx_state[0] 0.065324
172 VSS tx_state[1] 0.014875
173 VSS tx_state[2] 0.382579
174 VSS tx_state[3] 0.014875
175 VSS tx_state[4] 0.301652
176 VSS tx_state[5] 0.014875
177 VSS tx_state[6] 0.137928
178 VSS tx_state[7] 0.014875
179 VSS txdm 0.090540
180 VSS txdp 0.076357
181 VSS u_decoder\/_00_ 0.028841
182 VSS u_decoder\/_01_ 0.029750
183 VSS u_decoder\/_02_ 0.018676
184 VSS u_decoder\/_03_ 0.074043
185 VSS u_decoder\/_04_ 0.088918
186 VSS u_decoder\/prev_level 0.037081
187 VSS u_destuffer\/_00_ 0.029750
188 VSS u_destuffer\/_02_ 0.029750
189 VSS u_destuffer\/_03_ 0.039932
190 VSS u_destuffer\/_04_ 0.025057
191 VSS u_destuffer\/_05_ 0.014875
192 VSS u_destuffer\/_06_ 0.037789
193 VSS u_destuffer\/_08_ 0.032834
194 VSS u_destuffer\/_09_ 0.037135
195 VSS u_destuffer\/_10_ 0.088918
196 VSS u_destuffer\/_11_ 0.014875
197 VSS u_destuffer\/_12_ 0.103793
198 VSS u_destuffer\/_13_ 0.014875
199 VSS u_destuffer\/_15_ 0.012396
200 VSS u_destuffer\/ones_run[0] 0.033126
201 VSS u_destuffer\/ones_run[1] 0.014875
202 VSS u_destuffer\/ones_run[2] 0.014875
203 VSS u_encoder\/_0_ 0.014875
204 VSS u_encoder\/_1_ 0.029750
205 VSS u_encoder\/_2_ 0.014875
206 VSS u_eop_detector\/_00_ 0.014875
207 VSS u_eop_detector\/_01_ 0.014875
208 VSS u_eop_detector\/_02_ 0.014875
209 VSS u_eop_detector\/_03_ 0.014875
210 VSS u_eop_detector\/_07_ 0.014875
211 VSS u_eop_detector\/_08_ 0.044624
212 VSS u_eop_detector\/_09_ 0.281436
213 VSS u_eop_detector\/_10_ 0.047157
214 VSS u_eop_detector\/_11_ 0.021309
215 VSS u_eop_detector\/_12_ 0.101233
216 VSS u_eop_detector\/_13_ 0.032725
217 VSS u_eop_detector\/_14_ 0.014875
218 VSS u_eop_detector\/_15_ 0.118668
219 VSS u_eop_detector\/_16_ 0.014875
220 VSS u_eop_detector\/_17_ 0.048700
221 VSS u_eop_detector\/_18_ 0.014875
222 VSS u_eop_detector\/_19_ 0.015214
223 VSS u_eop_detector\/_20_ 0.021188
224 VSS u_eop_detector\/_21_ 0.019902
225 VSS u_eop_detector\/_23_ 0.014875
226 VSS u_eop_detector\/_24_ 0.019417
227 VSS u_eop_detector\/_25_ 0.016858
228 VSS u_eop_detector\/_26_ 0.055037
229 VSS u_eop_detector\/se0_count[0] 0.027375
230 VSS u_eop_detector\/se0_count[1] 0.029750
231 VSS u_eop_detector\/se0_count[2] 0.036195
232 VSS u_eop_detector\/se0_count[3] 0.127506
233 VSS u_eop_detector\/se0_count[4] 0.075268
234 VSS u_eop_detector\/se0_count[5] 0.014875
235 VSS u_line_state\/_0_ 0.014875
236 VSS u_line_state\/_1_ 0.014875
237 VSS u_line_state\/_2_ 0.029750
238 VSS u_stuffer\/_00_ 0.040472
239 VSS u_stuffer\/_03_ 0.036380
240 VSS u_stuffer\/_04_ 0.033427
241 VSS u_stuffer\/_06_ 0.017637
242 VSS u_stuffer\/_07_ 0.014875
243 VSS u_stuffer\/_09_ 0.014875
244 VSS u_stuffer\/_10_ 0.014875
245 VSS u_stuffer\/_11_ 0.092349
246 VSS u_stuffer\/_12_ 0.121398
247 VSS u_stuffer\/_13_ 0.055037
248 VSS u_stuffer\/run[0] 0.029750
249 VSS u_stuffer\/run[1] 0.044624
250 VSS u_stuffer\/run[2] 0.088918
251 VSS u_sync_detector\/_00_ 0.014875
252 VSS u_sync_detector\/_01_ 0.016166
253 VSS u_sync_detector\/_02_ 0.088918
254 VSS u_sync_detector\/_03_ 0.014875
255 VSS u_sync_detector\/_04_ 0.017386
256 VSS u_sync_detector\/_05_ 0.011900
257 VSS u_sync_detector\/_06_ 0.070407
258 VSS u_sync_detector\/_07_ 0.014875
259 VSS u_sync_detector\/_09_ 0.044624
260 VSS u_sync_detector\/_10_ 0.021766
261 VSS u_sync_detector\/_11_ 0.020572
262 VSS u_sync_detector\/_12_ 0.014875
263 VSS u_sync_detector\/_13_ 0.023407
264 VSS u_sync_detector\/_14_ 0.014875
265 VSS u_sync_detector\/_15_ 0.014875
266 VSS u_sync_detector\/match[0] 0.055007
267 VSS u_sync_detector\/match[1] 0.037155
268 VSS u_sync_detector\/match[2] 0.031733
269 VSS u_sync_detector\/match[3] 0.053880
*RES
1 VSS VSS:2 0.264700
2 VSS VSS:3 0.256300
3 VSS VSS:4 0.256000
4 VSS VSS:5 0.253500
5 VSS VSS:6 0.253200
6 VSS VSS:7 0.249600
7 VSS VSS:8 0.242300
8 VSS VSS:9 0.227300
9 VSS VSS:10 0.213100
10 VSS VSS:11 0.206900
11 VSS VSS:12 0.206500
12 VSS VSS:13 0.202300
13 VSS VSS:14 0.199600
14 VSS VSS:15 0.179200
15 VSS VSS:16 0.175600
16 VSS VSS:17 0.186000
17 VSS VSS:18 0.207200
18 VSS VSS:19 0.158400
19 VSS VSS:20 0.176700
20 VSS VSS:21 0.195000
21 VSS VSS:22 0.081300
22 VSS VSS:23 0.155200
23 VSS VSS:24 0.152100
24 VSS VSS:25 0.158300
25 VSS VSS:26 0.242000
26 VSS VSS:27 0.094600
27 VSS VSS:28 0.150800
28 VSS VSS:29 0.184200
29 VSS VSS:30 0.085000
30 VSS VSS:31 0.134600
31 VSS VSS:32 0.137900
32 VSS VSS:33 0.183600
33 VSS VSS:34 0.082800
34 VSS VSS:35 0.064200
35 VSS VSS:36 0.167100
36 VSS VSS:37 0.151800
37 VSS VSS:38 0.169000
38 VSS VSS:39 0.141700
39 VSS VSS:40 0.192000
40 VSS VSS:41 0.126100
41 VSS VSS:42 0.229700
42 VSS VSS:43 0.224800
43 VSS VSS:44 0.188900
44 VSS VSS:45 0.098700
45 VSS VSS:46 0.122400
46 VSS VSS:47 0.079500
47 VSS VSS:48 0.127600
48 VSS VSS:49 0.131500
49 VSS VSS:50 0.141600
50 VSS VSS:51 0.129300
51 VSS VSS:52 0.277200
52 VSS VSS:53 0.105200
53 VSS VSS:54 0.229600
54 VSS VSS:55 0.132500
55 VSS VSS:56 0.241300
56 VSS VSS:57 0.007000
57 VSS VSS:58 0.143500
58 VSS VSS:59 0.074700
59 VSS VSS:60 0.091000
60 VSS VSS:61 0.100500
61 VSS VSS:62 0.134200
62 VSS VSS:63 0.067500
63 VSS VSS:64 0.123200
64 VSS VSS:65 0.059200
65 VSS VSS:66 0.069700
66 VSS VSS:67 0.094100
67 VSS VSS:68 0.154800
68 VSS VSS:69 0.180900
69 VSS VSS:70 0.099800
70 VSS VSS:71 0.154000
71 VSS VSS:72 0.181200
72 VSS VSS:73 0.163800
73 VSS VSS:74 0.225500
74 VSS VSS:75 0.151700
75 VSS VSS:76 0.209700
76 VSS VSS:77 0.146700
77 VSS VSS:78 0.155000
78 VSS VSS:79 0.112600
79 VSS VSS:80 0.160900
80 VSS VSS:81 0.051100
81 VSS VSS:82 0.065900
82 VSS VSS:83 0.150100
83 VSS VSS:84 0.215000
84 VSS VSS:85 0.201500
85 VSS VSS:86 0.170000
86 VSS VSS:87 0.224000
87 VSS VSS:88 0.160000
88 VSS VSS:89 0.169300
89 VSS VSS:90 0.151900
90 VSS VSS:91 0.182500
91 VSS VSS:92 0.056200
92 VSS VSS:93 0.106500
93 VSS VSS:94 0.111100
94 VSS VSS:95 0.033900
95 VSS VSS:96 0.032500
96 VSS VSS:97 0.043600
97 VSS VSS:98 0.133500
98 VSS VSS:99 0.135700
99 VSS VSS:100 0.062700
100 VSS VSS:101 0.145400
101 VSS VSS:102 0.194300
102 VSS VSS:103 0.188300
103 VSS VSS:104 0.213600
104 VSS VSS:105 0.272100
105 VSS VSS:106 0.076100
106 VSS VSS:107 0.116700
107 VSS VSS:108 0.217000
108 VSS VSS:109 0.205100
109 VSS VSS:110 0.093900
110 VSS VSS:111 0.178100
111 VSS VSS:112 0.181600
112 VSS VSS:113 0.048300
113 VSS VSS:114 0.110400
114 VSS VSS:115 0.175600
115 VSS VSS:116 0.187300
116 VSS VSS:117 0.105100
117 VSS VSS:118 0.188600
118 VSS VSS:119 0.169800
119 VSS VSS:120 0.114400
120 VSS VSS:121 0.134300
121 VSS VSS:122 0.108200
122 VSS VSS:123 0.243100
123 VSS VSS:124 0.194200
124 VSS VSS:125 0.113700
125 VSS VSS:126 0.160700
126 VSS VSS:127 0.119500
127 VSS VSS:128 0.211500
128 VSS VSS:129 0.176400
129 VSS VSS:130 0.226900
130 VSS VSS:131 0.115400
131 VSS VSS:132 0.101200
132 VSS VSS:133 0.022900
133 VSS VSS:134 0.170800
134 VSS VSS:135 0.088500
135 VSS VSS:136 0.164500
136 VSS VSS:137 0.140500
137 VSS VSS:138 0.157000
138 VSS VSS:139 0.236200
139 VSS VSS:140 0.240400
140 VSS VSS:141 0.255300
141 VSS VSS:142 0.201100
142 VSS VSS:143 0.129200
143 VSS VSS:144 0.255700
144 VSS VSS:145 0.220000
145 VSS VSS:146 0.166100
146 VSS VSS:147 0.172700
147 VSS VSS:148 0.148700
148 VSS VSS:149 0.253300
149 VSS VSS:150 0.203500
150 VSS VSS:151 0.196600
151 VSS VSS:152 0.180700
152 VSS VSS:153 0.235100
153 VSS VSS:154 0.076800
154 VSS VSS:155 0.216700
155 VSS VSS:156 0.074400
156 VSS VSS:157 0.125500
157 VSS VSS:158 0.166700
158 VSS VSS:159 0.200600
159 VSS VSS:160 0.143900
160 VSS VSS:161 0.146600
161 VSS VSS:162 0.145200
162 VSS VSS:163 0.126700
163 VSS VSS:164 0.156000
164 VSS VSS:165 0.076400
165 VSS VSS:166 0.113400
166 VSS VSS:167 0.132000
167 VSS VSS:168 0.124600
168 VSS VSS:169 0.067300
169 VSS VSS:170 0.188200
170 VSS VSS:171 0.119500
171 VSS VSS:172 0.100600
172 VSS VSS:173 0.151000
173 VSS VSS:174 0.175000
174 VSS VSS:175 0.136000
175 VSS VSS:176 0.227100
176 VSS VSS:177 0.009100
177 VSS VSS:178 0.117000
178 VSS VSS:179 0.058400
179 VSS VSS:180 0.193600
180 VSS VSS:181 0.210500
181 VSS VSS:182 0.029200
182 VSS VSS:183 0.121000
183 VSS VSS:184 0.230300
184 VSS VSS:185 0.162500
185 VSS VSS:186 0.161400
186 VSS VSS:187 0.174200
187 VSS VSS:188 0.168800
188 VSS VSS:189 0.180600
189 VSS VSS:190 0.173000
190 VSS VSS:191 0.112100
191 VSS VSS:192 0.226900
192 VSS VSS:193 0.223700
193 VSS VSS:194 0.230400
194 VSS VSS:195 0.240500
195 VSS VSS:196 0.251100
196 VSS VSS:197 0.097400
197 VSS VSS:198 0.208200
198 VSS VSS:199 0.189500
199 VSS VSS:200 0.194500
200 VSS VSS:201 0.219300
201 VSS VSS:202 0.280000
202 VSS VSS:203 0.174400
203 VSS VSS:204 0.161900
204 VSS VSS:205 0.216600
205 VSS VSS:206 0.137700
206 VSS VSS:207 0.187000
207 VSS VSS:208 0.156200
208 VSS VSS:209 0.089900
209 VSS VSS:210 0.205400
210 VSS VSS:211 0.095300
211 VSS VSS:212 0.104800
212 VSS VSS:213 0.060800
213 VSS VSS:214 0.041800
214 VSS VSS:215 0.192300
215 VSS VSS:216 0.183400
216 VSS VSS:217 0.145300
217 VSS VSS:218 0.155400
218 VSS VSS:219 0.188800
219 VSS VSS:220 0.181300
220 VSS VSS:221 0.118300
221 VSS VSS:222 0.175600
222 VSS VSS:223 0.233100
223 VSS VSS:224 0.174800
224 VSS VSS:225 0.160400
225 VSS VSS:226 0.251300
226 VSS VSS:227 0.154700
227 VSS VSS:228 0.034900
228 VSS VSS:229 0.050000
229 VSS VSS:230 0.265900
230 VSS VSS:231 0.203800
231 VSS VSS:232 0.218900
232 VSS VSS:233 0.217900
233 VSS VSS:234 0.251100
234 VSS VSS:235 0.029300
235 VSS VSS:236 0.110200
236 VSS VSS:237 0.153700
237 VSS VSS:238 0.215900
238 VSS VSS:239 0.232200
239 VSS VSS:240 0.056200
240 VSS VSS:241 0.122300
241 VSS VSS:242 0.216900
242 VSS VSS:243 0.233700
243 VSS VSS:244 0.287700
244 VSS VSS:245 0.058200
245 VSS VSS:246 0.078600
246 VSS VSS:247 0.160400
247 VSS VSS:248 0.087500
248 VSS VSS:249 0.252400
249 VSS VSS:250 0.168800
250 VSS VSS:251 0.090000
251 VSS VSS:252 0.260800
252 VSS VSS:253 0.204100
253 VSS VSS:254 0.202200
254 VSS VSS:255 0.158500
255 VSS VSS:256 0.093300
256 VSS VSS:257 0.235700
257 VSS VSS:258 0.240800
258 VSS VSS:259 0.152900
259 VSS VSS:260 0.189700
260 VSS VSS:261 0.222800
261 VSS VSS:262 0.088700
262 VSS VSS:263 0.297700
263 VSS VSS:264 0.259900
264 VSS VSS:265 0.130700
265 VSS VSS:266 0.112900
266 VSS VSS:267 0.147400
267 VSS VSS:268 0.261500
268 VSS VSS:269 0.124000
269 VSS VSS:270 0.028900
270 VSS VSS:271 0.216500
271 VSS VSS:272 0.104100
272 VSS VSS:273 0.138900
273 VSS VSS:274 0.287100
274 VSS VSS:275 0.200600
275 VSS VSS:276 0.261500
276 VSS VSS:277 0.182200
277 VSS VSS:278 0.214300
278 VSS VSS:279 0.237700
279 VSS VSS:280 0.072800
280 VSS VSS:281 0.084100
281 VSS VSS:282 0.143100
282 VSS VSS:283 0.181300
283 VSS VSS:284 0.224500
284 VSS VSS:285 0.108600
285 VSS VSS:286 0.183200
286 VSS VSS:287 0.053100
287 VSS VSS:288 0.185600
288 VSS VSS:289 0.170200
289 VSS VSS:290 0.144300
290 VSS VSS:291 0.128300
291 VSS VSS:292 0.207500
292 VSS VSS:293 0.056200
293 VSS VSS:294 0.043000
294 VSS VSS:295 0.159000
295 VSS VSS:296 0.053200
296 VSS VSS:297 0.194600
297 VSS VSS:298 0.213900
298 VSS VSS:299 0.245100
299 VSS VSS:300 0.255800
300 VSS VSS:301 0.204900
301 VSS VSS:302 0.112600
302 VSS VSS:303 0.210500
303 VSS VSS:304 0.165100
304 VSS VSS:305 0.224800
305 VSS VSS:306 0.273000
306 VSS VSS:307 0.236400
307 VSS VSS:308 0.126100
308 VSS VSS:309 0.154100
309 VSS VSS:310 0.126300
310 VSS VSS:311 0.227900
311 VSS VSS:312 0.208300
312 VSS VSS:313 0.106900
313 VSS VSS:314 0.053300
314 VSS VSS:315 0.205200
315 VSS VSS:316 0.234600
316 VSS VSS:317 0.253200
317 VSS VSS:318 0.222100
318 VSS VSS:319 0.270300
319 VSS VSS:320 0.223900
320 VSS VSS:321 0.197200
321 VSS VSS:322 0.152400
322 VSS VSS:323 0.242100
323 VSS VSS:324 0.041200
324 VSS VSS:325 0.209800
325 VSS VSS:326 0.052800
326 VSS VSS:327 0.217200
327 VSS VSS:328 0.053800
328 VSS VSS:329 0.183800
329 VSS VSS:330 0.185800
330 VSS VSS:331 0.152700
331 VSS VSS:332 0.184400
332 VSS VSS:333 0.069700
333 VSS VSS:334 0.166900
334 VSS VSS:335 0.169900
335 VSS VSS:336 0.081500
336 VSS VSS:337 0.161400
337 VSS VSS:338 0.233200
338 VSS VSS:339 0.163600
339 VSS VSS:340 0.061200
340 VSS VSS:341 0.230800
341 VSS VSS:342 0.235600
342 VSS VSS:343 0.246700
343 VSS VSS:344 0.173600
344 VSS VSS:345 0.260300
345 VSS VSS:346 0.177700
346 VSS VSS:347 0.236000
347 VSS VSS:348 0.092300
348 VSS VSS:349 0.243200
349 VSS VSS:350 0.231100
350 VSS VSS:351 0.101500
351 VSS VSS:352 0.038100
352 VSS VSS:353 0.146900
353 VSS VSS:354 0.202700
354 VSS VSS:355 0.174100
355 VSS VSS:356 0.276800
356 VSS VSS:357 0.168800
357 VSS VSS:358 0.228300
358 VSS VSS:359 0.289000
359 VSS VSS:360 0.195600
360 VSS VSS:361 0.136100
361 VSS VSS:362 0.188100
362 VSS VSS:363 0.265400
363 VSS VSS:364 0.193600
364 VSS VSS:365 0.236500
365 VSS VSS:366 0.049400
366 VSS VSS:367 0.110000
367 VSS VSS:368 0.147600
368 VSS VSS:369 0.093700
369 VSS VSS:370 0.203300
370 VSS VSS:371 0.062600
371 VSS VSS:372 0.271000
372 VSS VSS:373 0.173900
373 VSS VSS:374 0.203200
374 VSS VSS:375 0.229400
375 VSS VSS:376 0.254200
376 VSS VSS:377 0.179200
377 VSS VSS:378 0.025800
378 VSS VSS:379 0.259100
379 VSS VSS:380 0.138200
380 VSS VSS:381 0.223400
381 VSS VSS:382 0.122700
382 VSS VSS:383 0.118200
383 VSS VSS:384 0.151900
384 VSS VSS:385 0.234900
385 VSS VSS:386 0.129100
386 VSS VSS:387 0.156100
387 VSS VSS:388 0.202700
388 VSS VSS:389 0.076500
389 VSS VSS:390 0.195500
390 VSS VSS:391 0.094400
391 VSS VSS:392 0.187200
392 VSS VSS:393 0.146000
393 VSS VSS:394 0.231400
394 VSS VSS:395 0.233000
395 VSS VSS:396 0.229400
396 VSS VSS:397 0.099500
397 VSS VSS:398 0.115900
398 VSS VSS:399 0.241900
399 VSS VSS:400 0.103800
400 VSS VSS:401 0.214200
401 VSS VSS:402 0.180200
402 VSS VSS:403 0.257000
403 VSS VSS:404 0.217100
404 VSS VSS:405 0.169200
405 VSS VSS:406 0.199500
406 VSS VSS:407 0.045200
407 VSS VSS:408 0.270600
408 VSS VSS:409 0.090900
409 VSS VSS:410 0.100800
410 VSS VSS:411 0.241300
411 VSS VSS:412 0.098400
412 VSS VSS:413 0.108600
413 VSS VSS:414 0.249500
414 VSS VSS:415 0.154100
415 VSS VSS:416 0.179300
416 VSS VSS:417 0.168100
417 VSS VSS:418 0.102900
418 VSS VSS:419 0.217300
419 VSS VSS:420 0.188000
420 VSS VSS:421 0.235500
421 VSS VSS:422 0.210800
422 VSS VSS:423 0.123800
423 VSS VSS:424 0.212800
424 VSS VSS:425 0.140200
425 VSS VSS:426 0.125700
426 VSS VSS:427 0.163200
427 VSS VSS:428 0.138500
428 VSS VSS:429 0.169800
429 VSS VSS:430 0.228300
430 VSS VSS:431 0.144700
431 VSS VSS:432 0.125700
432 VSS VSS:433 0.257000
433 VSS VSS:434 0.121400
434 VSS VSS:435 0.073300
435 VSS VSS:436 0.096000
436 VSS VSS:437 0.170500
437 VSS VSS:438 0.226300
438 VSS VSS:439 0.153200
439 VSS VSS:440 0.174800
440 VSS VSS:441 0.148500
441 VSS VSS:442 0.144000
442 VSS VSS:443 0.214500
443 VSS VSS:444 0.131300
444 VSS VSS:445 0.124000
445 VSS VSS:446 0.174300
446 VSS VSS:447 0.188100
447 VSS VSS:448 0.170800
448 VSS VSS:449 0.261300
449 VSS VSS:450 0.250600
450 VSS VSS:451 0.283400
451 VSS VSS:452 0.178500
452 VSS VSS:453 0.152100
453 VSS VSS:454 0.169100
454 VSS VSS:455 0.228000
455 VSS VSS:456 0.246300
456 VSS VSS:457 0.186000
457 VSS VSS:458 0.180600
458 VSS VSS:459 0.230000
459 VSS VSS:460 0.168700
460 VSS VSS:461 0.177900
461 VSS VSS:462 0.235000
462 VSS VSS:463 0.190400
463 VSS VSS:464 0.202200
464 VSS VSS:465 0.204300
465 VSS VSS:466 0.207500
466 VSS VSS:467 0.227200
467 VSS VSS:468 0.172400
468 VSS VSS:469 0.144000
469 VSS VSS:470 0.218700
470 VSS VSS:471 0.024400
471 VSS VSS:472 0.138200
472 VSS VSS:473 0.046500
473 VSS VSS:474 0.218400
474 VSS VSS:475 0.203800
475 VSS VSS:476 0.174600
476 VSS VSS:477 0.110400
477 VSS VSS:478 0.051600
478 VSS VSS:479 0.234200
479 VSS VSS:480 0.231500
480 VSS VSS:481 0.235700
481 VSS VSS:482 0.239000
482 VSS VSS:483 0.225300
483 VSS VSS:484 0.222200
484 VSS VSS:485 0.117800
485 VSS VSS:486 0.114400
486 VSS VSS:487 0.232000
487 VSS VSS:488 0.228400
488 VSS VSS:489 0.191100
489 VSS VSS:490 0.187300
490 VSS VSS:491 0.153300
491 VSS VSS:492 0.122300
492 VSS VSS:493 0.126000
493 VSS VSS:494 0.119700
494 VSS VSS:495 0.123200
495 VSS VSS:496 0.208700
496 VSS VSS:497 0.212400
497 VSS VSS:498 0.177300
498 VSS VSS:499 0.173200
499 VSS VSS:500 0.114300
500 VSS VSS:501 0.118300
501 VSS VSS:502 0.171700
502 VSS VSS:503 0.167900
503 VSS VSS:504 0.188600
504 VSS VSS:505 0.192300
505 VSS VSS:506 0.179400
506 VSS VSS:507 0.066100
507 VSS VSS:508 0.200400
508 VSS VSS:509 0.095300
509 VSS VSS:510 0.236400
510 VSS VSS:511 0.232500
511 VSS VSS:512 0.182400
512 VSS VSS:513 0.178800
513 VSS VSS:514 0.068000
514 VSS VSS:515 0.066500
515 VSS VSS:516 0.070400
516 VSS VSS:517 0.073200
517 VSS VSS:518 0.086600
518 VSS VSS:519 0.089000
519 VSS VSS:520 0.087200
520 VSS VSS:521 0.085600
521 VSS VSS:522 0.034400
522 VSS VSS:523 0.031800
523 VSS VSS:524 0.081000
524 VSS VSS:525 0.081200
525 VSS VSS:526 0.055900
526 VSS VSS:527 0.051900
527 VSS VSS:528 0.167400
528 VSS VSS:529 0.171000
529 VSS VSS:530 0.220000
530 VSS VSS:531 0.151800
531 VSS VSS:532 0.177700
532 VSS VSS:533 0.119000
533 VSS VSS:534 0.079800
534 VSS VSS:535 0.265900
535 VSS VSS:536 0.092300
536 VSS VSS:537 0.202300
537 VSS VSS:538 0.229600
538 VSS VSS:539 0.065100
539 VSS VSS:540 0.127100
540 VSS VSS:541 0.129500
541 VSS VSS:542 0.060200
542 VSS VSS:543 0.186100
543 VSS VSS:544 0.182800
544 VSS VSS:545 0.059500
545 VSS VSS:546 0.189700
546 VSS VSS:547 0.184400
547 VSS VSS:548 0.192300
548 VSS VSS:549 0.187000
549 VSS VSS:550 0.181800
550 VSS VSS:551 0.179300
551 VSS VSS:552 0.206900
552 VSS VSS:553 0.204200
553 VSS VSS:554 0.034300
554 VSS VSS:555 0.036100
555 VSS VSS:556 0.185200
556 VSS VSS:557 0.136300
557 VSS VSS:558 0.098300
558 VSS VSS:559 0.201200
559 VSS VSS:560 0.103000
560 VSS VSS:561 0.069900
561 VSS VSS:562 0.164800
562 VSS VSS:563 0.127900
563 VSS VSS:564 0.125700
564 VSS VSS:565 0.214000
565 VSS VSS:566 0.285200
566 VSS VSS:567 0.232800
567 VSS VSS:568 0.191000
568 VSS VSS:569 0.193700
569 VSS VSS:570 0.101800
570 VSS VSS:571 0.169500
571 VSS VSS:572 0.191200
572 VSS VSS:573 0.227800
573 VSS VSS:574 0.069300
574 VSS VSS:575 0.018500
575 VSS VSS:576 0.172200
576 VSS VSS:577 0.105600
577 VSS VSS:578 0.065500
578 VSS VSS:579 0.195200
579 VSS VSS:580 0.231800
580 VSS VSS:581 0.014600
581 VSS VSS:582 0.164600
582 VSS VSS:583 0.162300
583 VSS VSS:584 0.031300
584 VSS VSS:585 0.030000
585 VSS VSS:586 0.258300
586 VSS VSS:587 0.261900
587 VSS VSS:588 0.154800
588 VSS VSS:589 0.153700
589 VSS VSS:590 0.153200
590 VSS VSS:591 0.198200
591 VSS VSS:592 0.145500
592 VSS VSS:593 0.179500
593 VSS VSS:594 0.225400
594 VSS VSS:595 0.206500
595 VSS VSS:596 0.121200
596 VSS VSS:597 0.272400
597 VSS VSS:598 0.134100
598 VSS VSS:599 0.178200
599 VSS VSS:600 0.099600
600 VSS VSS:601 0.152900
601 VSS VSS:602 0.236300
602 VSS VSS:603 0.067400
603 VSS VSS:604 0.093000
604 VSS VSS:605 0.088000
605 VSS VSS:606 0.165100
606 VSS VSS:607 0.162800
607 VSS VSS:608 0.156800
608 VSS VSS:609 0.163600
609 VSS VSS:610 0.160200
610 VSS VSS:611 0.159900
611 VSS VSS:612 0.050900
612 VSS VSS:613 0.209400
613 VSS VSS:614 0.196100
614 VSS VSS:615 0.110300
615 VSS VSS:616 0.067000
616 VSS VSS:617 0.217200
617 VSS VSS:618 0.086100
618 VSS VSS:619 0.121800
619 VSS VSS:620 0.212200
620 VSS VSS:621 0.113900
621 VSS VSS:622 0.116600
622 VSS VSS:623 0.197600
623 VSS VSS:624 0.180000
624 VSS VSS:625 0.126600
625 VSS VSS:626 0.105600
626 VSS VSS:627 0.073100
627 VSS VSS:628 0.132000
628 VSS VSS:629 0.133600
629 VSS VSS:630 0.207000
630 VSS VSS:631 0.198200
631 VSS VSS:632 0.199900
632 VSS VSS:633 0.199300
633 VSS VSS:634 0.204400
634 VSS VSS:635 0.054100
635 VSS VSS:636 0.167900
636 VSS VSS:637 0.101400
637 VSS VSS:638 0.112500
638 VSS VSS:639 0.119400
639 VSS VSS:640 0.127800
640 VSS VSS:641 0.209000
641 VSS VSS:642 0.193300
642 VSS VSS:643 0.191700
643 VSS VSS:644 0.082800
644 VSS VSS:645 0.214000
645 VSS VSS:646 0.063700
646 VSS VSS:647 0.113800
647 VSS VSS:648 0.110800
648 VSS VSS:649 0.177000
649 VSS VSS:650 0.199900
650 VSS VSS:651 0.189400
651 VSS VSS:652 0.134000
652 VSS VSS:653 0.182500
653 VSS VSS:654 0.064500
654 VSS VSS:655 0.258300
655 VSS VSS:656 0.203600
656 VSS VSS:657 0.144000
657 VSS VSS:658 0.097900
658 VSS VSS:659 0.170500
659 VSS VSS:660 0.117800
660 VSS VSS:661 0.182100
661 VSS VSS:662 0.141300
662 VSS VSS:663 0.199200
663 VSS VSS:664 0.201000
664 VSS VSS:665 0.176200
665 VSS VSS:666 0.148900
666 VSS VSS:667 0.151100
667 VSS VSS:668 0.133200
668 VSS VSS:669 0.121900
669 VSS VSS:670 0.181500
670 VSS VSS:671 0.183500
671 VSS VSS:672 0.028700
672 VSS VSS:673 0.031000
673 VSS VSS:674 0.024800
674 VSS VSS:675 0.033700
675 VSS VSS:676 0.201600
676 VSS VSS:677 0.139900
677 VSS VSS:678 0.135500
678 VSS VSS:679 0.149500
679 VSS VSS:680 0.199700
680 VSS VSS:681 0.144600
681 VSS VSS:682 0.200500
682 VSS VSS:683 0.198900
683 VSS VSS:684 0.199000
684 VSS VSS:685 0.137700
685 VSS VSS:686 0.199000
686 VSS VSS:687 0.199200
687 VSS VSS:688 0.161800
688 VSS VSS:689 0.152000
689 VSS VSS:690 0.147000
690 VSS VSS:691 0.199400
691 VSS VSS:692 0.142200
692 VSS VSS:693 0.201000
693 VSS VSS:694 0.200100
694 VSS VSS:695 0.159100
695 VSS VSS:696 0.199200
696 VSS VSS:697 0.199400
697 VSS VSS:698 0.154900
698 VSS VSS:699 0.198900
699 VSS VSS:700 0.059400
700 VSS VSS:701 0.181300
701 VSS VSS:702 0.166900
702 VSS VSS:703 0.141100
703 VSS VSS:704 0.046000
704 VSS VSS:705 0.156800
705 VSS VSS:706 0.255700
706 VSS VSS:707 0.198900
707 VSS VSS:708 0.164500
708 VSS VSS:709 0.154600
709 VSS VSS:710 0.129700
710 VSS VSS:711 0.245100
711 VSS VSS:712 0.157900
712 VSS VSS:713 0.062600
713 VSS VSS:714 0.180200
714 VSS VSS:715 0.132600
715 VSS VSS:716 0.048500
716 VSS VSS:717 0.247700
717 VSS VSS:718 0.137300
718 VSS VSS:719 0.200500
719 VSS VSS:720 0.181000
720 VSS VSS:721 0.155500
721 VSS VSS:722 0.209500
722 VSS VSS:723 0.207100
723 VSS VSS:724 0.200500
724 VSS VSS:725 0.147400
725 VSS VSS:726 0.155300
726 VSS VSS:727 0.151700
727 VSS VSS:728 0.231300
728 VSS VSS:729 0.179200
729 VSS VSS:730 0.125000
730 VSS VSS:731 0.143300
731 VSS VSS:732 0.202300
732 VSS VSS:733 0.173700
733 VSS VSS:734 0.122200
734 VSS VSS:735 0.002700
735 VSS VSS:736 0.137800
736 VSS VSS:737 0.154500
737 VSS VSS:738 0.143700
738 VSS VSS:739 0.003800
739 VSS VSS:740 0.222500
740 VSS VSS:741 0.082200
741 VSS VSS:742 0.201700
742 VSS VSS:743 0.238700
743 VSS VSS:744 0.183400
744 VSS VSS:745 0.071300
745 VSS VSS:746 0.194300
746 VSS VSS:747 0.068500
747 VSS VSS:748 0.138600
748 VSS VSS:749 0.132700
749 VSS VSS:750 0.176500
750 VSS VSS:751 0.178500
751 VSS VSS:752 0.162800
752 VSS VSS:753 0.170500
753 VSS VSS:754 0.166000
754 VSS VSS:755 0.102400
755 VSS VSS:756 0.102100
756 VSS VSS:757 0.128100
757 VSS VSS:758 0.105600
758 VSS VSS:759 0.160700
759 VSS VSS:760 0.068700
760 VSS VSS:761 0.092000
761 VSS VSS:762 0.152000
762 VSS VSS:763 0.110800
763 VSS VSS:764 0.109400
764 VSS VSS:765 0.127700
765 VSS VSS:766 0.154700
766 VSS VSS:767 0.061800
767 VSS VSS:768 0.149700
768 VSS VSS:769 0.153400
769 VSS VSS:770 0.153600
770 VSS VSS:771 0.151000
771 VSS VSS:772 0.274800
772 VSS VSS:773 0.180300
773 VSS VSS:774 0.131000
774 VSS VSS:775 0.208100
775 VSS VSS:776 0.146000
776 VSS VSS:777 0.091100
777 VSS VSS:778 0.227500
778 VSS VSS:779 0.064500
779 VSS VSS:780 0.097800
780 VSS VSS:781 0.096400
781 VSS VSS:782 0.118400
782 VSS VSS:783 0.089600
783 VSS VSS:784 0.185900
784 VSS VSS:785 0.109100
785 VSS VSS:786 0.177100
786 VSS VSS:787 0.076800
787 VSS VSS:788 0.263500
788 VSS VSS:789 0.151500
789 VSS VSS:790 0.200900
790 VSS VSS:791 0.218000
791 VSS VSS:792 0.227200
792 VSS VSS:793 0.229200
793 VSS VSS:794 0.001000
794 VSS VSS:795 0.005900
795 VSS VSS:796 0.136900
796 VSS VSS:797 0.134900
797 VSS VSS:798 0.140800
798 VSS VSS:799 0.219600
799 VSS VSS:800 0.079300
800 VSS VSS:801 0.202300
801 VSS VSS:802 0.203000
802 VSS VSS:803 0.201100
803 VSS VSS:804 0.085100
804 VSS VSS:805 0.088100
805 VSS VSS:806 0.072800
806 VSS VSS:807 0.198800
807 VSS VSS:808 0.149900
808 VSS VSS:809 0.153900
809 VSS VSS:810 0.191300
810 VSS VSS:811 0.135600
811 VSS VSS:812 0.129700
812 VSS VSS:813 0.177400
813 VSS VSS:814 0.172700
814 VSS VSS:815 0.179500
815 VSS VSS:816 0.159600
816 VSS VSS:817 0.156400
817 VSS VSS:818 0.103800
818 VSS VSS:819 0.126800
819 VSS VSS:820 0.168200
820 VSS VSS:821 0.163700
821 VSS VSS:822 0.069900
822 VSS VSS:823 0.111300
823 VSS VSS:824 0.146800
824 VSS VSS:825 0.157700
825 VSS VSS:826 0.149300
826 VSS VSS:827 0.107400
827 VSS VSS:828 0.148500
828 VSS VSS:829 0.126100
829 VSS VSS:830 0.166100
830 VSS VSS:831 0.064500
831 VSS VSS:832 0.152600
832 VSS VSS:833 0.155200
833 VSS VSS:834 0.152300
834 VSS VSS:835 0.191900
835 VSS VSS:836 0.129500
836 VSS VSS:837 0.148500
837 VSS VSS:838 0.197400
838 VSS VSS:839 0.117400
839 VSS VSS:840 0.221900
840 VSS VSS:841 0.224300
841 VSS VSS:842 0.048700
842 VSS VSS:843 0.045200
843 VSS VSS:844 0.245000
844 VSS VSS:845 0.198000
845 VSS VSS:846 0.098800
846 VSS VSS:847 0.163700
847 VSS VSS:848 0.115200
848 VSS VSS:849 0.229900
849 VSS VSS:850 0.225500
850 VSS VSS:851 0.177100
851 VSS VSS:852 0.233800
852 VSS VSS:853 0.234500
853 VSS VSS:854 0.234700
854 VSS VSS:855 0.243400
855 VSS VSS:856 0.244600
856 VSS VSS:857 0.124300
857 VSS VSS:858 0.222000
858 VSS VSS:859 0.259300
859 VSS VSS:860 0.183600
860 VSS VSS:861 0.252700
861 VSS VSS:862 0.240600
862 VSS VSS:863 0.172900
863 VSS VSS:864 0.177100
864 VSS VSS:865 0.164700
865 VSS VSS:866 0.209800
866 VSS VSS:867 0.110400
867 VSS VSS:868 0.279300
868 VSS VSS:869 0.038000
869 VSS VSS:870 0.281300
870 VSS VSS:871 0.149100
871 VSS VSS:872 0.213800
872 VSS VSS:873 0.148100
873 VSS VSS:874 0.222600
874 VSS VSS:875 0.162100
875 VSS VSS:876 0.243400
876 VSS VSS:877 0.144300
877 VSS VSS:878 0.256200
878 VSS VSS:879 0.111200
879 VSS VSS:880 0.176800
880 VSS VSS:881 0.123600
881 VSS VSS:882 0.173700
882 VSS VSS:883 0.284100
883 VSS VSS:884 0.282600
884 VSS VSS:885 0.215600
885 VSS VSS:886 0.247100
886 VSS VSS:887 0.237100
887 VSS VSS:888 0.036700
888 VSS VSS:889 0.151200
889 VSS VSS:890 0.160400
890 VSS VSS:891 0.182800
891 VSS VSS:892 0.163000
892 VSS VSS:893 0.220100
893 VSS VSS:894 0.205900
894 VSS VSS:895 0.256000
895 VSS VSS:896 0.219700
896 VSS VSS:897 0.220700
897 VSS VSS:898 0.139000
898 VSS VSS:899 0.119000
899 VSS VSS:900 0.128700
900 VSS VSS:901 0.164600
901 VSS VSS:902 0.149500
902 VSS VSS:903 0.133800
903 VSS VSS:904 0.161800
904 VSS VSS:905 0.250800
905 VSS VSS:906 0.252000
906 VSS VSS:907 0.136400
907 VSS VSS:908 0.115800
908 VSS VSS:909 0.146300
909 VSS VSS:910 0.217500
910 VSS VSS:911 0.131300
911 VSS VSS:912 0.141600
912 VSS VSS:913 0.248200
913 VSS VSS:914 0.250000
914 VSS VSS:915 0.222800
915 VSS VSS:916 0.267500
916 VSS VSS:917 0.240400
917 VSS VSS:918 0.160900
918 VSS VSS:919 0.170100
919 VSS VSS:920 0.169400
920 VSS VSS:921 0.159800
921 VSS VSS:922 0.109700
922 VSS VSS:923 0.271300
923 VSS VSS:924 0.230500
924 VSS VSS:925 0.231000
925 VSS VSS:926 0.044200
926 VSS VSS:927 0.126900
927 VSS VSS:928 0.188500
928 VSS VSS:929 0.142100
929 VSS VSS:930 0.230900
930 VSS VSS:931 0.207100
931 VSS VSS:932 0.252000
932 VSS VSS:933 0.186100
933 VSS VSS:934 0.270100
934 VSS VSS:935 0.274600
935 VSS VSS:936 0.156700
936 VSS VSS:937 0.168200
937 VSS VSS:938 0.235000
938 VSS VSS:939 0.166900
939 VSS VSS:940 0.218600
940 VSS VSS:941 0.227900
941 VSS VSS:942 0.248300
942 VSS VSS:943 0.185200
943 VSS VSS:944 0.244400
944 VSS VSS:945 0.164100
945 VSS VSS:946 0.227800
946 VSS VSS:947 0.125900
947 VSS VSS:948 0.266500
948 VSS VSS:949 0.109700
949 VSS VSS:950 0.041800
950 VSS VSS:951 0.144300
951 VSS VSS:952 0.209200
952 VSS VSS:953 0.271300
953 VSS VSS:954 0.184700
954 VSS VSS:955 0.237300
955 VSS VSS:956 0.238300
956 VSS VSS:957 0.214800
957 VSS VSS:958 0.175800
958 VSS VSS:959 0.120100
959 VSS VSS:960 0.193400
960 VSS VSS:961 0.168700
961 VSS VSS:962 0.150700
962 VSS VSS:963 0.173700
963 VSS VSS:964 0.108500
964 VSS VSS:965 0.250700
965 VSS VSS:966 0.226900
966 VSS VSS:967 0.252500
967 VSS VSS:968 0.196000
968 VSS VSS:969 0.100100
969 VSS VSS:970 0.234000
970 VSS VSS:971 0.289200
971 VSS VSS:972 0.272300
972 VSS VSS:973 0.252200
973 VSS VSS:974 0.151400
974 VSS VSS:975 0.091700
975 VSS VSS:976 0.239700
976 VSS VSS:977 0.243800
977 VSS VSS:978 0.057200
978 VSS VSS:979 0.192600
979 VSS VSS:980 0.148600
980 VSS VSS:981 0.122000
981 VSS VSS:982 0.087800
982 VSS VSS:983 0.208400
983 VSS VSS:984 0.071900
984 VSS VSS:985 0.188300
985 VSS VSS:986 0.144400
986 VSS VSS:987 0.057200
987 VSS VSS:988 0.150200
988 VSS VSS:989 0.047100
989 VSS VSS:990 0.239100
990 VSS VSS:991 0.104000
991 VSS VSS:992 0.028300
992 VSS VSS:993 0.109800
993 VSS VSS:994 0.210300
994 VSS VSS:995 0.106400
995 VSS VSS:996 0.254600
996 VSS VSS:997 0.090500
997 VSS VSS:998 0.256300
998 VSS VSS:999 0.191100
999 VSS VSS:1000 0.125700
1000 VSS VSS:1001 0.097000
1001 VSS VSS:1002 0.218200
1002 VSS VSS:1003 0.186000
1003 VSS VSS:1004 0.199200
1004 VSS VSS:1005 0.165300
1005 VSS VSS:1006 0.074500
1006 VSS VSS:1007 0.057200
1007 VSS VSS:1008 0.207000
1008 VSS VSS:1009 0.087400
1009 VSS VSS:1010 0.050900
1010 VSS VSS:1011 0.211400
1011 VSS VSS:1012 0.106400
1012 VSS VSS:1013 0.028100
1013 VSS VSS:1014 0.223400
1014 VSS VSS:1015 0.236600
1015 VSS VSS:1016 0.054000
1016 VSS VSS:1017 0.152100
1017 VSS VSS:1018 0.174300
1018 VSS VSS:1019 0.246700
1019 VSS VSS:1020 0.175500
1020 VSS VSS:1021 0.121500
1021 VSS VSS:1022 0.191600
1022 VSS VSS:1023 0.113300
1023 VSS VSS:1024 0.144500
1024 VSS VSS:1025 0.256100
1025 VSS VSS:1026 0.269400
1026 VSS VSS:1027 0.151200
1027 VSS VSS:1028 0.292700
1028 VSS VSS:1029 0.233800
1029 VSS VSS:1030 0.152100
1030 VSS VSS:1031 0.149200
1031 VSS VSS:1032 0.240300
1032 VSS VSS:1033 0.240100
1033 VSS VSS:1034 0.241100
1034 VSS VSS:1035 0.197100
1035 VSS VSS:1036 0.097200
1036 VSS VSS:1037 0.173300
1037 VSS VSS:1038 0.140600
1038 VSS VSS:1039 0.145600
1039 VSS VSS:1040 0.221400
1040 VSS VSS:1041 0.248400
1041 VSS VSS:1042 0.282600
1042 VSS VSS:1043 0.237500
1043 VSS VSS:1044 0.176700
1044 VSS VSS:1045 0.180100
1045 VSS VSS:1046 0.147400
1046 VSS VSS:1047 0.239200
1047 VSS VSS:1048 0.234700
1048 VSS VSS:1049 0.148700
1049 VSS VSS:1050 0.199100
1050 VSS VSS:1051 0.277800
1051 VSS VSS:1052 0.185400
1052 VSS VSS:1053 0.239100
1053 VSS VSS:1054 0.199300
1054 VSS VSS:1055 0.096000
1055 VSS VSS:1056 0.153500
1056 VSS VSS:1057 0.098800
1057 VSS VSS:1058 0.198700
1058 VSS VSS:1059 0.033100
1059 VSS VSS:1060 0.234300
1060 VSS VSS:1061 0.109200
1061 VSS VSS:1062 0.033800
1062 VSS VSS:1063 0.091400
1063 VSS VSS:1064 0.059700
1064 VSS VSS:1065 0.117000
1065 VSS VSS:1066 0.202800
1066 VSS VSS:1067 0.069000
1067 VSS VSS:1068 0.064700
1068 VSS VSS:1069 0.239400
1069 VSS VSS:1070 0.111200
1070 VSS VSS:1071 0.117000
1071 VSS VSS:1072 0.237100
1072 VSS VSS:1073 0.176400
1073 VSS VSS:1074 0.148400
1074 VSS VSS:1075 0.243700
1075 VSS VSS:1076 0.176300
1076 VSS VSS:1077 0.114100
1077 VSS VSS:1078 0.235100
1078 VSS VSS:1079 0.202100
1079 VSS VSS:1080 0.237700
1080 VSS VSS:1081 0.194100
1081 VSS VSS:1082 0.243400
1082 VSS VSS:1083 0.241800
1083 VSS VSS:1084 0.279200
1084 VSS VSS:1085 0.197300
1085 VSS VSS:1086 0.094400
1086 VSS VSS:1087 0.188800
1087 VSS VSS:1088 0.217800
1088 VSS VSS:1089 0.090000
1089 VSS VSS:1090 0.102300
1090 VSS VSS:1091 0.196600
1091 VSS VSS:1092 0.031000
1092 VSS VSS:1093 0.245300
1093 VSS VSS:1094 0.145000
1094 VSS VSS:1095 0.113400
1095 VSS VSS:1096 0.149400
1096 VSS VSS:1097 0.038200
1097 VSS VSS:1098 0.152300
1098 VSS VSS:1099 0.237900
1099 VSS VSS:1100 0.058600
1100 VSS VSS:1101 0.206700
1101 VSS VSS:1102 0.143100
1102 VSS VSS:1103 0.173400
1103 VSS VSS:1104 0.281600
1104 VSS VSS:1105 0.099300
1105 VSS VSS:1106 0.066800
1106 VSS VSS:1107 0.065100
1107 VSS VSS:1108 0.117900
1108 VSS VSS:1109 0.234100
1109 VSS VSS:1110 0.107500
1110 VSS VSS:1111 0.263200
1111 VSS VSS:1112 0.264000
1112 VSS VSS:1113 0.024900
1113 VSS VSS:1114 0.180200
1114 VSS VSS:1115 0.176500
1115 VSS VSS:1116 0.113600
1116 VSS VSS:1117 0.140800
1117 VSS VSS:1118 0.027200
1118 VSS VSS:1119 0.264800
1119 VSS VSS:1120 0.143400
1120 VSS VSS:1121 0.216300
1121 VSS VSS:1122 0.215300
1122 VSS VSS:1123 0.054400
1123 VSS VSS:1124 0.039900
1124 VSS VSS:1125 0.244800
1125 VSS VSS:1126 0.035000
1126 VSS VSS:1127 0.030700
1127 VSS VSS:1128 0.248600
1128 VSS VSS:1129 0.175000
1129 VSS VSS:1130 0.204100
1130 VSS VSS:1131 0.048800
1131 VSS VSS:1132 0.096300
1132 VSS VSS:1133 0.165000
1133 VSS VSS:1134 0.110800
1134 VSS VSS:1135 0.200700
1135 VSS VSS:1136 0.217100
1136 VSS VSS:1137 0.218600
1137 VSS VSS:1138 0.247500
1138 VSS VSS:1139 0.132400
1139 VSS VSS:1140 0.177600
1140 VSS VSS:1141 0.191800
1141 VSS VSS:1142 0.190400
1142 VSS VSS:1143 0.204400
1143 VSS VSS:1144 0.238800
1144 VSS VSS:1145 0.251800
1145 VSS VSS:1146 0.183600
1146 VSS VSS:1147 0.145600
1147 VSS VSS:1148 0.263700
1148 VSS VSS:1149 0.258400
1149 VSS VSS:1150 0.266700
1150 VSS VSS:1151 0.197100
1151 VSS VSS:1152 0.131300
1152 VSS VSS:1153 0.232700
1153 VSS VSS:1154 0.293400
1154 VSS VSS:1155 0.200200
1155 VSS VSS:1156 0.185200
1156 VSS VSS:1157 0.174000
1157 VSS VSS:1158 0.281100
1158 VSS VSS:1159 0.123000
1159 VSS VSS:1160 0.181800
1160 VSS VSS:1161 0.184300
1161 VSS VSS:1162 0.256300
1162 VSS VSS:1163 0.206600
1163 VSS VSS:1164 0.287800
1164 VSS VSS:1165 0.088400
1165 VSS VSS:1166 0.133600
1166 VSS VSS:1167 0.175300
1167 VSS VSS:1168 0.261300
1168 VSS VSS:1169 0.135600
1169 VSS VSS:1170 0.059800
1170 VSS VSS:1171 0.228100
1171 VSS VSS:1172 0.235900
1172 VSS VSS:1173 0.227500
1173 VSS VSS:1174 0.227600
1174 VSS VSS:1175 0.242900
1175 VSS VSS:1176 0.081500
1176 VSS VSS:1177 0.200100
1177 VSS VSS:1178 0.240500
1178 VSS VSS:1179 0.097000
1179 VSS VSS:1180 0.092000
1180 VSS VSS:1181 0.100000
1181 VSS VSS:1182 0.121100
1182 VSS VSS:1183 0.135600
1183 VSS VSS:1184 0.130500
1184 VSS VSS:1185 0.115700
1185 VSS VSS:1186 0.235200
1186 VSS VSS:1187 0.212200
1187 VSS VSS:1188 0.126700
1188 VSS VSS:1189 0.235000
1189 VSS VSS:1190 0.178800
1190 VSS VSS:1191 0.236000
1191 VSS VSS:1192 0.101700
1192 VSS VSS:1193 0.051100
1193 VSS VSS:1194 0.230100
1194 VSS VSS:1195 0.213900
1195 VSS VSS:1196 0.057100
1196 VSS VSS:1197 0.205800
1197 VSS VSS:1198 0.189300
1198 VSS VSS:1199 0.146800
1199 VSS VSS:1200 0.176300
1200 VSS VSS:1201 0.020500
1201 VSS VSS:1202 0.175300
1202 VSS VSS:1203 0.178200
1203 VSS VSS:1204 0.174300
1204 VSS VSS:1205 0.148200
1205 VSS VSS:1206 0.042100
1206 VSS VSS:1207 0.224100
1207 VSS VSS:1208 0.228700
1208 VSS VSS:1209 0.226100
1209 VSS VSS:1210 0.226100
1210 VSS VSS:1211 0.235000
1211 VSS VSS:1212 0.143300
1212 VSS VSS:1213 0.081600
1213 VSS VSS:1214 0.117200
1214 VSS VSS:1215 0.053000
1215 VSS VSS:1216 0.069100
1216 VSS VSS:1217 0.065300
1217 VSS VSS:1218 0.233100
1218 VSS VSS:1219 0.157700
1219 VSS VSS:1220 0.255500
1220 VSS VSS:1221 0.146600
1221 VSS VSS:1222 0.174600
1222 VSS VSS:1223 0.205700
1223 VSS VSS:1224 0.235800
1224 VSS VSS:1225 0.084800
1225 VSS VSS:1226 0.116700
1226 VSS VSS:1227 0.244400
1227 VSS VSS:1228 0.225800
1228 VSS VSS:1229 0.104000
1229 VSS VSS:1230 0.190700
1230 VSS VSS:1231 0.142800
1231 VSS VSS:1232 0.245400
1232 VSS VSS:1233 0.207400
1233 VSS VSS:1234 0.178800
1234 VSS VSS:1235 0.242800
1235 VSS VSS:1236 0.259000
1236 VSS VSS:1237 0.252500
1237 VSS VSS:1238 0.257800
1238 VSS VSS:1239 0.235500
1239 VSS VSS:1240 0.200200
1240 VSS VSS:1241 0.263900
1241 VSS VSS:1242 0.215600
1242 VSS VSS:1243 0.194700
1243 VSS VSS:1244 0.224100
1244 VSS VSS:1245 0.135300
1245 VSS VSS:1246 0.111200
1246 VSS VSS:1247 0.179600
1247 VSS VSS:1248 0.138200
1248 VSS VSS:1249 0.082000
1249 VSS VSS:1250 0.103400
1250 VSS VSS:1251 0.187900
1251 VSS VSS:1252 0.146600
1252 VSS VSS:1253 0.159000
1253 VSS VSS:1254 0.184200
1254 VSS VSS:1255 0.088000
1255 VSS VSS:1256 0.107200
1256 VSS VSS:1257 0.225100
1257 VSS VSS:1258 0.072100
1258 VSS VSS:1259 0.125900
1259 VSS VSS:1260 0.084600
1260 VSS VSS:1261 0.252700
1261 VSS VSS:1262 0.066900
1262 VSS VSS:1263 0.055500
1263 VSS VSS:1264 0.044600
1264 VSS VSS:1265 0.058900
1265 VSS VSS:1266 0.120300
1266 VSS VSS:1267 0.238200
1267 VSS VSS:1268 0.183100
1268 VSS VSS:1269 0.177100
1269 VSS VSS:1270 0.134400
1270 VSS VSS:1271 0.188300
1271 VSS VSS:1272 0.199300
1272 VSS VSS:1273 0.266500
1273 VSS VSS:1274 0.254900
1274 VSS VSS:1275 0.145200
1275 VSS VSS:1276 0.260800
1276 VSS VSS:1277 0.296100
1277 VSS VSS:1278 0.283800
1278 VSS VSS:1279 0.240900
1279 VSS VSS:1280 0.209000
1280 VSS VSS:1281 0.182400
1281 VSS VSS:1282 0.132000
1282 VSS VSS:1283 0.090900
1283 VSS VSS:1284 0.202900
1284 VSS VSS:1285 0.098500
1285 VSS VSS:1286 0.134300
1286 VSS VSS:1287 0.131600
1287 VSS VSS:1288 0.115500
1288 VSS VSS:1289 0.129100
1289 VSS VSS:1290 0.207600
1290 VSS VSS:1291 0.190300
1291 VSS VSS:1292 0.234700
1292 VSS VSS:1293 0.177900
1293 VSS VSS:1294 0.172900
1294 VSS VSS:1295 0.174600
1295 VSS VSS:1296 0.149000
1296 VSS VSS:1297 0.222900
1297 VSS VSS:1298 0.220800
1298 VSS VSS:1299 0.143500
1299 VSS VSS:1300 0.222600
1300 VSS VSS:1301 0.093300
1301 VSS VSS:1302 0.085900
1302 VSS VSS:1303 0.017200
1303 VSS VSS:1304 0.233400
1304 VSS VSS:1305 0.239200
1305 VSS VSS:1306 0.235500
1306 VSS VSS:1307 0.178300
1307 VSS VSS:1308 0.025900
1308 VSS VSS:1309 0.028800
1309 VSS VSS:1310 0.267700
1310 VSS VSS:1311 0.042500
1311 VSS VSS:1312 0.246700
1312 VSS VSS:1313 0.037400
1313 VSS VSS:1314 0.032700
1314 VSS VSS:1315 0.250500
1315 VSS VSS:1316 0.182200
1316 VSS VSS:1317 0.264700
1317 VSS VSS:1318 0.245400
1318 VSS VSS:1319 0.235500
1319 VSS VSS:1320 0.234700
1320 VSS VSS:1321 0.257800
1321 VSS VSS:1322 0.203800
1322 VSS VSS:1323 0.252500
1323 VSS VSS:1324 0.207400
1324 VSS VSS:1325 0.178800
1325 VSS VSS:1326 0.174600
1326 VSS VSS:1327 0.242800
1327 VSS VSS:1328 0.182400
1328 VSS VSS:1329 0.159000
1329 VSS VSS:1330 0.146600
1330 VSS VSS:1331 0.218700
1331 VSS VSS:1332 0.184200
1332 VSS VSS:1333 0.144000
1333 VSS VSS:1334 0.179600
1334 VSS VSS:1335 0.183100
1335 VSS VSS:1336 0.235500
1336 VSS VSS:1337 0.120300
1337 VSS VSS:1338 0.111200
1338 VSS VSS:1339 0.194700
1339 VSS VSS:1340 0.103400
1340 VSS VSS:1341 0.187900
1341 VSS VSS:1342 0.138200
1342 VSS VSS:1343 0.138200
1343 VSS VSS:1344 0.082000
1344 VSS VSS:1345 0.215600
1345 VSS VSS:1346 0.200200
1346 VSS VSS:1347 0.135300
1347 VSS VSS:1348 0.093300
1348 VSS VSS:1349 0.222900
1349 VSS VSS:1350 0.051600
1350 VSS VSS:1351 0.024400
1351 VSS VSS:1352 0.110400
1352 VSS VSS:1353 0.072100
1353 VSS VSS:1354 0.143500
1354 VSS VSS:1355 0.107200
1355 VSS VSS:1356 0.017200
1356 VSS VSS:1357 0.220800
1357 VSS VSS:1358 0.233400
1358 VSS VSS:1359 0.088000
1359 VSS VSS:1360 0.238200
1360 VSS VSS:1361 0.134400
1361 VSS VSS:1362 0.084600
1362 VSS VSS:1363 0.044600
1363 VSS VSS:1364 0.222600
1364 VSS VSS:1365 0.046500
1365 VSS VSS:1366 0.239200
1366 VSS VSS:1367 0.177100
1367 VSS VSS:1368 0.055500
1368 VSS VSS:1369 0.125900
1369 VSS VSS:1370 0.066900
1370 VSS VSS:1371 0.058900
1371 VSS VSS:1372 0.085900
1372 VSS VSS:1373 0.218400
1373 VSS VSS:1374 0.254900
1374 VSS VSS:1375 0.129100
1375 VSS VSS:1376 0.098500
1376 VSS VSS:1377 0.090900
1377 VSS VSS:1378 0.202900
1378 VSS VSS:1379 0.225100
1379 VSS VSS:1380 0.115500
1380 VSS VSS:1381 0.132000
1381 VSS VSS:1382 0.172900
1382 VSS VSS:1383 0.266500
1383 VSS VSS:1384 0.131600
1384 VSS VSS:1385 0.134300
1385 VSS VSS:1386 0.252700
1386 VSS VSS:1387 0.209000
1387 VSS VSS:1388 0.149000
1388 VSS VSS:1389 0.145200
1389 VSS VSS:1390 0.188300
1390 VSS VSS:1391 0.263900
1391 VSS VSS:1392 0.283800
1392 VSS VSS:1393 0.177900
1393 VSS VSS:1394 0.296100
1394 VSS VSS:1395 0.260800
1395 VSS VSS:1396 0.207600
1396 VSS VSS:1397 0.174600
1397 VSS VSS:1398 0.224100
1398 VSS VSS:1399 0.240900
1399 VSS VSS:1400 0.190300
1400 VSS VSS:1401 0.199300
1401 VSS VSS:1402 0.259000
1402 VSS VSS:1403 0.264000
1403 VSS VSS:1404 0.204100
1404 VSS VSS:1405 0.250500
1405 VSS VSS:1406 0.248600
1406 VSS VSS:1407 0.246700
1407 VSS VSS:1408 0.244800
1408 VSS VSS:1409 0.175000
1409 VSS VSS:1410 0.216300
1410 VSS VSS:1411 0.182200
1411 VSS VSS:1412 0.180200
1412 VSS VSS:1413 0.178300
1413 VSS VSS:1414 0.176500
1414 VSS VSS:1415 0.143400
1415 VSS VSS:1416 0.140800
1416 VSS VSS:1417 0.054400
1417 VSS VSS:1418 0.024900
1418 VSS VSS:1419 0.025900
1419 VSS VSS:1420 0.027200
1420 VSS VSS:1421 0.028800
1421 VSS VSS:1422 0.030700
1422 VSS VSS:1423 0.032700
1423 VSS VSS:1424 0.035000
1424 VSS VSS:1425 0.037400
1425 VSS VSS:1426 0.039900
1426 VSS VSS:1427 0.042500
1427 VSS VSS:1428 0.113600
1428 VSS VSS:1429 0.048800
1429 VSS VSS:1430 0.215300
1430 VSS VSS:1431 0.264800
1431 VSS VSS:1432 0.267700
1432 VSS VSS:1433 0.263200
1433 VSS VSS:1434 0.244400
1434 VSS VSS:1435 0.235200
1435 VSS VSS:1436 0.235000
1436 VSS VSS:1437 0.227500
1437 VSS VSS:1438 0.256300
1438 VSS VSS:1439 0.204400
1439 VSS VSS:1440 0.242900
1440 VSS VSS:1441 0.205700
1441 VSS VSS:1442 0.178200
1442 VSS VSS:1443 0.175300
1443 VSS VSS:1444 0.240500
1444 VSS VSS:1445 0.183600
1445 VSS VSS:1446 0.157700
1446 VSS VSS:1447 0.146800
1447 VSS VSS:1448 0.213900
1448 VSS VSS:1449 0.174600
1449 VSS VSS:1450 0.142800
1450 VSS VSS:1451 0.177600
1451 VSS VSS:1452 0.185200
1452 VSS VSS:1453 0.232700
1453 VSS VSS:1454 0.121100
1454 VSS VSS:1455 0.181800
1455 VSS VSS:1456 0.110800
1456 VSS VSS:1457 0.191800
1457 VSS VSS:1458 0.101700
1458 VSS VSS:1459 0.190700
1459 VSS VSS:1460 0.143300
1460 VSS VSS:1461 0.135600
1461 VSS VSS:1462 0.081500
1462 VSS VSS:1463 0.218600
1463 VSS VSS:1464 0.197100
1464 VSS VSS:1465 0.132400
1465 VSS VSS:1466 0.217100
1466 VSS VSS:1467 0.096300
1467 VSS VSS:1468 0.226100
1468 VSS VSS:1469 0.057100
1469 VSS VSS:1470 0.045200
1470 VSS VSS:1471 0.116700
1471 VSS VSS:1472 0.233100
1472 VSS VSS:1473 0.069100
1473 VSS VSS:1474 0.146600
1474 VSS VSS:1475 0.104000
1475 VSS VSS:1476 0.020500
1476 VSS VSS:1477 0.224100
1477 VSS VSS:1478 0.228700
1478 VSS VSS:1479 0.230100
1479 VSS VSS:1480 0.084800
1480 VSS VSS:1481 0.235000
1481 VSS VSS:1482 0.131300
1482 VSS VSS:1483 0.081600
1483 VSS VSS:1484 0.042100
1484 VSS VSS:1485 0.225800
1485 VSS VSS:1486 0.051100
1486 VSS VSS:1487 0.236000
1487 VSS VSS:1488 0.174000
1488 VSS VSS:1489 0.053000
1489 VSS VSS:1490 0.123000
1490 VSS VSS:1491 0.065300
1491 VSS VSS:1492 0.059800
1492 VSS VSS:1493 0.088400
1493 VSS VSS:1494 0.212200
1494 VSS VSS:1495 0.251800
1495 VSS VSS:1496 0.126700
1496 VSS VSS:1497 0.097000
1497 VSS VSS:1498 0.092000
1498 VSS VSS:1499 0.235800
1499 VSS VSS:1500 0.100000
1500 VSS VSS:1501 0.117200
1501 VSS VSS:1502 0.200100
1502 VSS VSS:1503 0.228100
1503 VSS VSS:1504 0.115700
1504 VSS VSS:1505 0.133600
1505 VSS VSS:1506 0.175300
1506 VSS VSS:1507 0.270600
1507 VSS VSS:1508 0.263700
1508 VSS VSS:1509 0.130500
1509 VSS VSS:1510 0.135600
1510 VSS VSS:1511 0.255500
1511 VSS VSS:1512 0.206600
1512 VSS VSS:1513 0.148200
1513 VSS VSS:1514 0.145600
1514 VSS VSS:1515 0.190400
1515 VSS VSS:1516 0.266700
1516 VSS VSS:1517 0.165000
1517 VSS VSS:1518 0.178800
1518 VSS VSS:1519 0.200200
1519 VSS VSS:1520 0.247500
1520 VSS VSS:1521 0.281100
1521 VSS VSS:1522 0.176300
1522 VSS VSS:1523 0.293400
1523 VSS VSS:1524 0.258400
1524 VSS VSS:1525 0.205800
1525 VSS VSS:1526 0.174300
1526 VSS VSS:1527 0.226100
1527 VSS VSS:1528 0.287800
1528 VSS VSS:1529 0.235900
1529 VSS VSS:1530 0.238800
1530 VSS VSS:1531 0.189300
1531 VSS VSS:1532 0.200700
1532 VSS VSS:1533 0.261300
1533 VSS VSS:1534 0.256300
1534 VSS VSS:1535 0.257000
1535 VSS VSS:1536 0.227200
1536 VSS VSS:1537 0.228300
1537 VSS VSS:1538 0.214500
1538 VSS VSS:1539 0.217300
1539 VSS VSS:1540 0.235000
1540 VSS VSS:1541 0.188000
1541 VSS VSS:1542 0.170500
1542 VSS VSS:1543 0.202800
1543 VSS VSS:1544 0.188100
1544 VSS VSS:1545 0.140200
1545 VSS VSS:1546 0.118200
1546 VSS VSS:1547 0.139600
1547 VSS VSS:1548 0.125700
1548 VSS VSS:1549 0.230000
1549 VSS VSS:1550 0.174800
1550 VSS VSS:1551 0.121400
1551 VSS VSS:1552 0.073300
1552 VSS VSS:1553 0.163200
1553 VSS VSS:1554 0.090900
1554 VSS VSS:1555 0.100800
1555 VSS VSS:1556 0.210800
1556 VSS VSS:1557 0.207500
1557 VSS VSS:1558 0.102900
1558 VSS VSS:1559 0.212800
1559 VSS VSS:1560 0.157300
1560 VSS VSS:1561 0.235500
1561 VSS VSS:1562 0.154100
1562 VSS VSS:1563 0.096000
1563 VSS VSS:1564 0.119300
1564 VSS VSS:1565 0.167900
1565 VSS VSS:1566 0.226300
1566 VSS VSS:1567 0.170800
1567 VSS VSS:1568 0.123800
1568 VSS VSS:1569 0.168100
1569 VSS VSS:1570 0.241300
1570 VSS VSS:1571 0.174300
1571 VSS VSS:1572 0.108600
1572 VSS VSS:1573 0.098400
1573 VSS VSS:1574 0.179300
1574 VSS VSS:1575 0.168700
1575 VSS VSS:1576 0.138500
1576 VSS VSS:1577 0.169100
1577 VSS VSS:1578 0.186000
1578 VSS VSS:1579 0.249500
1579 VSS VSS:1580 0.131300
1580 VSS VSS:1581 0.125700
1581 VSS VSS:1582 0.246300
1582 VSS VSS:1583 0.235000
1583 VSS VSS:1584 0.228000
1584 VSS VSS:1585 0.202200
1585 VSS VSS:1586 0.190400
1586 VSS VSS:1587 0.177900
1587 VSS VSS:1588 0.144700
1588 VSS VSS:1589 0.204300
1589 VSS VSS:1590 0.180600
1590 VSS VSS:1591 0.172400
1591 VSS VSS:1592 0.153200
1592 VSS VSS:1593 0.148500
1593 VSS VSS:1594 0.144000
1594 VSS VSS:1595 0.124000
1595 VSS VSS:1596 0.261300
1596 VSS VSS:1597 0.250600
1597 VSS VSS:1598 0.169800
1598 VSS VSS:1599 0.152100
1599 VSS VSS:1600 0.178500
1600 VSS VSS:1601 0.283400
1601 VSS VSS:1602 0.256400
1602 VSS VSS:1603 0.257200
1603 VSS VSS:1604 0.216200
1604 VSS VSS:1605 0.170200
1605 VSS VSS:1606 0.177200
1606 VSS VSS:1607 0.213500
1607 VSS VSS:1608 0.238100
1608 VSS VSS:1609 0.106500
1609 VSS VSS:1610 0.202100
1610 VSS VSS:1611 0.256000
1611 VSS VSS:1612 0.257000
1612 VSS VSS:1613 0.214200
1613 VSS VSS:1614 0.169200
1614 VSS VSS:1615 0.180200
1615 VSS VSS:1616 0.217100
1616 VSS VSS:1617 0.241900
1617 VSS VSS:1618 0.103800
1618 VSS VSS:1619 0.199500
1619 VSS VSS:1620 0.243200
1620 VSS VSS:1621 0.234900
1621 VSS VSS:1622 0.236000
1622 VSS VSS:1623 0.253500
1623 VSS VSS:1624 0.203200
1624 VSS VSS:1625 0.177700
1625 VSS VSS:1626 0.236500
1626 VSS VSS:1627 0.156100
1627 VSS VSS:1628 0.147600
1628 VSS VSS:1629 0.174100
1629 VSS VSS:1630 0.228300
1630 VSS VSS:1631 0.110000
1631 VSS VSS:1632 0.187200
1632 VSS VSS:1633 0.099500
1633 VSS VSS:1634 0.195600
1634 VSS VSS:1635 0.223400
1635 VSS VSS:1636 0.101500
1636 VSS VSS:1637 0.231400
1637 VSS VSS:1638 0.151900
1638 VSS VSS:1639 0.025800
1639 VSS VSS:1640 0.229400
1640 VSS VSS:1641 0.076500
1641 VSS VSS:1642 0.038100
1642 VSS VSS:1643 0.231100
1643 VSS VSS:1644 0.230800
1644 VSS VSS:1645 0.168800
1645 VSS VSS:1646 0.049400
1646 VSS VSS:1647 0.118200
1647 VSS VSS:1648 0.062600
1648 VSS VSS:1649 0.061200
1649 VSS VSS:1650 0.092300
1650 VSS VSS:1651 0.246700
1651 VSS VSS:1652 0.122700
1652 VSS VSS:1653 0.094400
1653 VSS VSS:1654 0.093700
1654 VSS VSS:1655 0.195500
1655 VSS VSS:1656 0.233000
1656 VSS VSS:1657 0.115900
1657 VSS VSS:1658 0.136100
1658 VSS VSS:1659 0.179200
1659 VSS VSS:1660 0.259100
1660 VSS VSS:1661 0.129100
1661 VSS VSS:1662 0.138200
1662 VSS VSS:1663 0.260300
1663 VSS VSS:1664 0.202700
1664 VSS VSS:1665 0.146900
1665 VSS VSS:1666 0.146000
1666 VSS VSS:1667 0.193600
1667 VSS VSS:1668 0.271000
1668 VSS VSS:1669 0.276800
1669 VSS VSS:1670 0.173900
1670 VSS VSS:1671 0.289000
1671 VSS VSS:1672 0.254200
1672 VSS VSS:1673 0.202700
1673 VSS VSS:1674 0.173600
1674 VSS VSS:1675 0.229400
1675 VSS VSS:1676 0.235600
1676 VSS VSS:1677 0.188100
1677 VSS VSS:1678 0.203300
1678 VSS VSS:1679 0.265400
1679 VSS VSS:1680 0.242600
1680 VSS VSS:1681 0.234700
1681 VSS VSS:1682 0.236300
1682 VSS VSS:1683 0.252500
1683 VSS VSS:1684 0.202000
1684 VSS VSS:1685 0.177400
1685 VSS VSS:1686 0.234800
1686 VSS VSS:1687 0.155300
1687 VSS VSS:1688 0.147800
1688 VSS VSS:1689 0.172700
1689 VSS VSS:1690 0.226200
1690 VSS VSS:1691 0.109800
1691 VSS VSS:1692 0.185100
1692 VSS VSS:1693 0.098400
1693 VSS VSS:1694 0.197800
1694 VSS VSS:1695 0.225700
1695 VSS VSS:1696 0.103800
1696 VSS VSS:1697 0.233800
1697 VSS VSS:1698 0.154200
1698 VSS VSS:1699 0.028200
1699 VSS VSS:1700 0.231800
1700 VSS VSS:1701 0.074200
1701 VSS VSS:1702 0.036500
1702 VSS VSS:1703 0.233500
1703 VSS VSS:1704 0.228400
1704 VSS VSS:1705 0.166500
1705 VSS VSS:1706 0.047800
1706 VSS VSS:1707 0.116100
1707 VSS VSS:1708 0.061600
1708 VSS VSS:1709 0.062200
1709 VSS VSS:1710 0.094200
1710 VSS VSS:1711 0.244500
1711 VSS VSS:1712 0.120900
1712 VSS VSS:1713 0.093500
1713 VSS VSS:1714 0.094700
1714 VSS VSS:1715 0.193400
1715 VSS VSS:1716 0.235200
1716 VSS VSS:1717 0.116200
1717 VSS VSS:1718 0.137400
1718 VSS VSS:1719 0.181000
1719 VSS VSS:1720 0.257000
1720 VSS VSS:1721 0.128400
1721 VSS VSS:1722 0.139400
1722 VSS VSS:1723 0.262500
1723 VSS VSS:1724 0.201000
1724 VSS VSS:1725 0.146400
1725 VSS VSS:1726 0.146400
1726 VSS VSS:1727 0.195300
1727 VSS VSS:1728 0.273000
1728 VSS VSS:1729 0.274800
1729 VSS VSS:1730 0.172700
1730 VSS VSS:1731 0.287100
1731 VSS VSS:1732 0.252500
1732 VSS VSS:1733 0.201500
1733 VSS VSS:1734 0.173500
1734 VSS VSS:1735 0.230900
1735 VSS VSS:1736 0.234000
1736 VSS VSS:1737 0.187500
1737 VSS VSS:1738 0.204400
1738 VSS VSS:1739 0.267200
1739 VSS VSS:1740 0.241700
1740 VSS VSS:1741 0.238700
1741 VSS VSS:1742 0.234500
1742 VSS VSS:1743 0.234000
1743 VSS VSS:1744 0.236800
1744 VSS VSS:1745 0.239100
1745 VSS VSS:1746 0.251000
1746 VSS VSS:1747 0.245600
1747 VSS VSS:1748 0.200400
1748 VSS VSS:1749 0.194400
1749 VSS VSS:1750 0.177000
1750 VSS VSS:1751 0.175900
1751 VSS VSS:1752 0.232500
1752 VSS VSS:1753 0.223600
1753 VSS VSS:1754 0.154300
1754 VSS VSS:1755 0.150700
1755 VSS VSS:1756 0.148300
1756 VSS VSS:1757 0.150800
1757 VSS VSS:1758 0.170800
1758 VSS VSS:1759 0.163400
1759 VSS VSS:1760 0.223500
1760 VSS VSS:1761 0.212300
1761 VSS VSS:1762 0.109700
1762 VSS VSS:1763 0.110200
1763 VSS VSS:1764 0.182300
1764 VSS VSS:1765 0.170800
1765 VSS VSS:1766 0.097000
1766 VSS VSS:1767 0.092400
1767 VSS VSS:1768 0.200700
1768 VSS VSS:1769 0.212600
1769 VSS VSS:1770 0.228700
1770 VSS VSS:1771 0.241100
1771 VSS VSS:1772 0.106900
1772 VSS VSS:1773 0.119600
1773 VSS VSS:1774 0.237000
1774 VSS VSS:1775 0.250100
1775 VSS VSS:1776 0.157400
1776 VSS VSS:1777 0.170500
1777 VSS VSS:1778 0.031400
1778 VSS VSS:1779 0.044600
1779 VSS VSS:1780 0.235100
1780 VSS VSS:1781 0.248300
1781 VSS VSS:1782 0.071300
1782 VSS VSS:1783 0.059300
1783 VSS VSS:1784 0.034500
1784 VSS VSS:1785 0.028800
1785 VSS VSS:1786 0.236700
1786 VSS VSS:1787 0.249800
1787 VSS VSS:1788 0.225200
1788 VSS VSS:1789 0.212200
1789 VSS VSS:1790 0.163300
1790 VSS VSS:1791 0.150400
1791 VSS VSS:1792 0.045700
1792 VSS VSS:1793 0.038900
1793 VSS VSS:1794 0.113300
1794 VSS VSS:1795 0.102100
1795 VSS VSS:1796 0.060500
1796 VSS VSS:1797 0.057400
1797 VSS VSS:1798 0.063500
1798 VSS VSS:1799 0.070400
1799 VSS VSS:1800 0.096800
1800 VSS VSS:1801 0.107800
1801 VSS VSS:1802 0.241400
1802 VSS VSS:1803 0.229100
1803 VSS VSS:1804 0.118700
1804 VSS VSS:1805 0.110000
1805 VSS VSS:1806 0.092300
1806 VSS VSS:1807 0.088400
1807 VSS VSS:1808 0.096100
1808 VSS VSS:1809 0.102600
1809 VSS VSS:1810 0.190600
1810 VSS VSS:1811 0.179200
1811 VSS VSS:1812 0.238200
1812 VSS VSS:1813 0.250400
1813 VSS VSS:1814 0.116600
1814 VSS VSS:1815 0.119400
1815 VSS VSS:1816 0.139200
1816 VSS VSS:1817 0.147100
1817 VSS VSS:1818 0.183500
1818 VSS VSS:1819 0.194000
1819 VSS VSS:1820 0.254200
1820 VSS VSS:1821 0.242700
1821 VSS VSS:1822 0.127500
1822 VSS VSS:1823 0.124700
1823 VSS VSS:1824 0.140900
1824 VSS VSS:1825 0.147800
1825 VSS VSS:1826 0.265300
1826 VSS VSS:1827 0.277100
1827 VSS VSS:1828 0.198700
1828 VSS VSS:1829 0.189900
1829 VSS VSS:1830 0.145900
1830 VSS VSS:1831 0.144500
1831 VSS VSS:1832 0.147000
1832 VSS VSS:1833 0.150100
1833 VSS VSS:1834 0.197500
1834 VSS VSS:1835 0.206700
1835 VSS VSS:1836 0.275800
1836 VSS VSS:1837 0.287100
1837 VSS VSS:1838 0.272100
1838 VSS VSS:1839 0.261300
1839 VSS VSS:1840 0.171200
1840 VSS VSS:1841 0.165600
1841 VSS VSS:1842 0.284500
1842 VSS VSS:1843 0.274100
1843 VSS VSS:1844 0.250100
1844 VSS VSS:1845 0.240800
1845 VSS VSS:1846 0.199900
1846 VSS VSS:1847 0.193600
1847 VSS VSS:1848 0.173400
1848 VSS VSS:1849 0.173600
1849 VSS VSS:1850 0.233100
1850 VSS VSS:1851 0.242100
1851 VSS VSS:1852 0.232000
1852 VSS VSS:1853 0.224000
1853 VSS VSS:1854 0.186700
1854 VSS VSS:1855 0.184000
1855 VSS VSS:1856 0.205900
1856 VSS VSS:1857 0.212500
1857 VSS VSS:1858 0.269500
1858 VSS VSS:1859 0.279500
1859 VSS VSS:1860 0.241100
1860 VSS VSS:1861 0.234300
1861 VSS VSS:1862 0.237100
1862 VSS VSS:1863 0.199300
1863 VSS VSS:1864 0.176700
1864 VSS VSS:1865 0.153500
1865 VSS VSS:1866 0.148700
1866 VSS VSS:1867 0.221400
1867 VSS VSS:1868 0.180100
1868 VSS VSS:1869 0.096000
1869 VSS VSS:1870 0.202800
1870 VSS VSS:1871 0.109200
1871 VSS VSS:1872 0.239400
1872 VSS VSS:1873 0.033800
1873 VSS VSS:1874 0.237500
1874 VSS VSS:1875 0.069000
1875 VSS VSS:1876 0.033100
1876 VSS VSS:1877 0.239100
1877 VSS VSS:1878 0.111200
1878 VSS VSS:1879 0.059700
1879 VSS VSS:1880 0.064700
1880 VSS VSS:1881 0.098800
1881 VSS VSS:1882 0.239200
1882 VSS VSS:1883 0.117000
1883 VSS VSS:1884 0.091400
1884 VSS VSS:1885 0.097200
1885 VSS VSS:1886 0.117000
1886 VSS VSS:1887 0.140600
1887 VSS VSS:1888 0.185400
1888 VSS VSS:1889 0.197100
1889 VSS VSS:1890 0.145600
1890 VSS VSS:1891 0.147400
1891 VSS VSS:1892 0.199100
1892 VSS VSS:1893 0.277800
1893 VSS VSS:1894 0.282600
1894 VSS VSS:1895 0.248400
1895 VSS VSS:1896 0.198700
1896 VSS VSS:1897 0.173300
1897 VSS VSS:1898 0.234700
1898 VSS VSS:1899 0.240100
1899 VSS VSS:1900 0.234100
1900 VSS VSS:1901 0.237900
1901 VSS VSS:1902 0.197300
1902 VSS VSS:1903 0.176300
1903 VSS VSS:1904 0.152300
1904 VSS VSS:1905 0.149400
1905 VSS VSS:1906 0.217800
1906 VSS VSS:1907 0.176400
1907 VSS VSS:1908 0.094400
1908 VSS VSS:1909 0.206700
1909 VSS VSS:1910 0.113400
1910 VSS VSS:1911 0.243700
1911 VSS VSS:1912 0.038200
1912 VSS VSS:1913 0.241800
1913 VSS VSS:1914 0.065100
1914 VSS VSS:1915 0.031000
1915 VSS VSS:1916 0.243400
1916 VSS VSS:1917 0.107500
1917 VSS VSS:1918 0.058600
1918 VSS VSS:1919 0.066800
1919 VSS VSS:1920 0.102300
1920 VSS VSS:1921 0.235100
1921 VSS VSS:1922 0.114100
1922 VSS VSS:1923 0.090000
1923 VSS VSS:1924 0.099300
1924 VSS VSS:1925 0.117900
1925 VSS VSS:1926 0.143100
1926 VSS VSS:1927 0.188800
1927 VSS VSS:1928 0.194100
1928 VSS VSS:1929 0.145000
1929 VSS VSS:1930 0.148400
1930 VSS VSS:1931 0.202100
1931 VSS VSS:1932 0.281600
1932 VSS VSS:1933 0.279200
1933 VSS VSS:1934 0.245300
1934 VSS VSS:1935 0.196600
1935 VSS VSS:1936 0.173400
1936 VSS VSS:1937 0.237700
1937 VSS VSS:1938 0.239400
1938 VSS VSS:1939 0.234000
1939 VSS VSS:1940 0.238500
1940 VSS VSS:1941 0.246900
1941 VSS VSS:1942 0.195800
1942 VSS VSS:1943 0.176100
1943 VSS VSS:1944 0.225700
1944 VSS VSS:1945 0.151500
1945 VSS VSS:1946 0.150100
1946 VSS VSS:1947 0.165100
1947 VSS VSS:1948 0.215000
1948 VSS VSS:1949 0.109900
1949 VSS VSS:1950 0.173600
1950 VSS VSS:1951 0.093400
1951 VSS VSS:1952 0.209700
1952 VSS VSS:1953 0.238100
1953 VSS VSS:1954 0.116500
1954 VSS VSS:1955 0.246900
1955 VSS VSS:1956 0.167300
1956 VSS VSS:1957 0.041400
1957 VSS VSS:1958 0.245000
1958 VSS VSS:1959 0.062200
1959 VSS VSS:1960 0.029700
1960 VSS VSS:1961 0.246600
1961 VSS VSS:1962 0.215400
1962 VSS VSS:1963 0.153600
1963 VSS VSS:1964 0.040300
1964 VSS VSS:1965 0.104800
1965 VSS VSS:1966 0.057900
1966 VSS VSS:1967 0.068600
1967 VSS VSS:1968 0.105000
1968 VSS VSS:1969 0.232100
1969 VSS VSS:1970 0.112000
1970 VSS VSS:1971 0.089100
1971 VSS VSS:1972 0.100900
1972 VSS VSS:1973 0.182000
1973 VSS VSS:1974 0.247400
1974 VSS VSS:1975 0.118600
1975 VSS VSS:1976 0.145100
1976 VSS VSS:1977 0.191400
1977 VSS VSS:1978 0.245500
1978 VSS VSS:1979 0.125300
1979 VSS VSS:1980 0.146000
1980 VSS VSS:1981 0.274200
1981 VSS VSS:1982 0.192000
1982 VSS VSS:1983 0.144700
1983 VSS VSS:1984 0.149200
1984 VSS VSS:1985 0.204400
1985 VSS VSS:1986 0.284300
1986 VSS VSS:1987 0.263900
1987 VSS VSS:1988 0.166900
1988 VSS VSS:1989 0.276600
1989 VSS VSS:1990 0.243000
1990 VSS VSS:1991 0.195100
1991 VSS VSS:1992 0.173400
1992 VSS VSS:1993 0.239900
1993 VSS VSS:1994 0.225900
1994 VSS VSS:1995 0.184500
1995 VSS VSS:1996 0.210800
1996 VSS VSS:1997 0.277000
1997 VSS VSS:1998 0.238300
1998 VSS VSS:1999 0.234000
1999 VSS VSS:2000 0.239700
2000 VSS VSS:2001 0.193400
2001 VSS VSS:2002 0.175800
2002 VSS VSS:2003 0.150200
2003 VSS VSS:2004 0.151400
2004 VSS VSS:2005 0.210300
2005 VSS VSS:2006 0.168700
2006 VSS VSS:2007 0.091700
2007 VSS VSS:2008 0.214800
2008 VSS VSS:2009 0.122000
2009 VSS VSS:2010 0.252500
2010 VSS VSS:2011 0.047100
2011 VSS VSS:2012 0.250700
2012 VSS VSS:2013 0.057200
2013 VSS VSS:2014 0.028300
2014 VSS VSS:2015 0.252200
2015 VSS VSS:2016 0.100100
2016 VSS VSS:2017 0.057200
2017 VSS VSS:2018 0.071900
2018 VSS VSS:2019 0.109800
2019 VSS VSS:2020 0.226900
2020 VSS VSS:2021 0.108500
2021 VSS VSS:2022 0.087800
2022 VSS VSS:2023 0.104000
2023 VSS VSS:2024 0.120100
2024 VSS VSS:2025 0.148600
2025 VSS VSS:2026 0.196000
2026 VSS VSS:2027 0.188300
2027 VSS VSS:2028 0.144400
2028 VSS VSS:2029 0.150700
2029 VSS VSS:2030 0.208400
2030 VSS VSS:2031 0.289200
2031 VSS VSS:2032 0.272300
2032 VSS VSS:2033 0.239100
2033 VSS VSS:2034 0.192600
2034 VSS VSS:2035 0.173700
2035 VSS VSS:2036 0.243800
2036 VSS VSS:2037 0.237300
2037 VSS VSS:2038 0.233800
2038 VSS VSS:2039 0.240300
2039 VSS VSS:2040 0.191600
2040 VSS VSS:2041 0.175500
2041 VSS VSS:2042 0.149200
2042 VSS VSS:2043 0.152100
2043 VSS VSS:2044 0.207000
2044 VSS VSS:2045 0.165300
2045 VSS VSS:2046 0.090500
2046 VSS VSS:2047 0.218200
2047 VSS VSS:2048 0.125700
2048 VSS VSS:2049 0.256300
2049 VSS VSS:2050 0.050900
2050 VSS VSS:2051 0.254600
2051 VSS VSS:2052 0.054000
2052 VSS VSS:2053 0.028100
2053 VSS VSS:2054 0.256100
2054 VSS VSS:2055 0.097000
2055 VSS VSS:2056 0.057200
2056 VSS VSS:2057 0.074500
2057 VSS VSS:2058 0.113300
2058 VSS VSS:2059 0.223400
2059 VSS VSS:2060 0.106400
2060 VSS VSS:2061 0.087400
2061 VSS VSS:2062 0.106400
2062 VSS VSS:2063 0.121500
2063 VSS VSS:2064 0.151200
2064 VSS VSS:2065 0.199200
2065 VSS VSS:2066 0.186000
2066 VSS VSS:2067 0.144500
2067 VSS VSS:2068 0.152100
2068 VSS VSS:2069 0.211400
2069 VSS VSS:2070 0.292700
2070 VSS VSS:2071 0.269400
2071 VSS VSS:2072 0.236600
2072 VSS VSS:2073 0.191100
2073 VSS VSS:2074 0.174300
2074 VSS VSS:2075 0.246700
2075 VSS VSS:2076 0.235700
2076 VSS VSS:2077 0.233100
2077 VSS VSS:2078 0.240800
2078 VSS VSS:2079 0.242300
2079 VSS VSS:2080 0.203800
2080 VSS VSS:2081 0.188800
2081 VSS VSS:2082 0.174800
2082 VSS VSS:2083 0.216900
2083 VSS VSS:2084 0.205400
2084 VSS VSS:2085 0.147400
2085 VSS VSS:2086 0.152900
2086 VSS VSS:2087 0.158500
2087 VSS VSS:2088 0.216600
2088 VSS VSS:2089 0.202200
2089 VSS VSS:2090 0.137700
2090 VSS VSS:2091 0.112900
2091 VSS VSS:2092 0.160400
2092 VSS VSS:2093 0.088700
2093 VSS VSS:2094 0.222800
2094 VSS VSS:2095 0.104800
2095 VSS VSS:2096 0.090000
2096 VSS VSS:2097 0.252400
2097 VSS VSS:2098 0.156200
2098 VSS VSS:2099 0.095300
2099 VSS VSS:2100 0.130700
2100 VSS VSS:2101 0.261500
2101 VSS VSS:2102 0.028900
2102 VSS VSS:2103 0.182200
2103 VSS VSS:2104 0.060800
2104 VSS VSS:2105 0.056200
2105 VSS VSS:2106 0.259900
2106 VSS VSS:2107 0.187000
2107 VSS VSS:2108 0.041800
2108 VSS VSS:2109 0.192300
2109 VSS VSS:2110 0.089900
2110 VSS VSS:2111 0.050000
2111 VSS VSS:2112 0.029300
2112 VSS VSS:2113 0.261500
2113 VSS VSS:2114 0.200600
2114 VSS VSS:2115 0.138900
2115 VSS VSS:2116 0.034900
2116 VSS VSS:2117 0.093300
2117 VSS VSS:2118 0.058200
2118 VSS VSS:2119 0.078600
2119 VSS VSS:2120 0.118300
2120 VSS VSS:2121 0.218900
2121 VSS VSS:2122 0.104100
2122 VSS VSS:2123 0.087500
2123 VSS VSS:2124 0.110200
2124 VSS VSS:2125 0.168800
2125 VSS VSS:2126 0.260800
2126 VSS VSS:2127 0.124000
2127 VSS VSS:2128 0.155400
2128 VSS VSS:2129 0.204100
2129 VSS VSS:2130 0.232200
2130 VSS VSS:2131 0.122300
2131 VSS VSS:2132 0.153700
2132 VSS VSS:2133 0.287100
2133 VSS VSS:2134 0.183400
2134 VSS VSS:2135 0.145300
2135 VSS VSS:2136 0.154700
2136 VSS VSS:2137 0.215900
2137 VSS VSS:2138 0.297700
2138 VSS VSS:2139 0.251300
2139 VSS VSS:2140 0.160400
2140 VSS VSS:2141 0.265900
2141 VSS VSS:2142 0.233700
2142 VSS VSS:2143 0.189700
2143 VSS VSS:2144 0.175600
2144 VSS VSS:2145 0.251100
2145 VSS VSS:2146 0.216500
2146 VSS VSS:2147 0.181300
2147 VSS VSS:2148 0.217900
2148 VSS VSS:2149 0.287700
2149 VSS VSS:2150 0.250000
2150 VSS VSS:2151 0.230900
2151 VSS VSS:2152 0.169400
2152 VSS VSS:2153 0.109700
2153 VSS VSS:2154 0.231000
2154 VSS VSS:2155 0.159800
2155 VSS VSS:2156 0.222800
2156 VSS VSS:2157 0.160900
2157 VSS VSS:2158 0.044200
2158 VSS VSS:2159 0.188500
2159 VSS VSS:2160 0.240400
2160 VSS VSS:2161 0.252000
2161 VSS VSS:2162 0.126900
2162 VSS VSS:2163 0.142100
2163 VSS VSS:2164 0.267500
2164 VSS VSS:2165 0.270100
2165 VSS VSS:2166 0.170100
2166 VSS VSS:2167 0.230500
2167 VSS VSS:2168 0.186100
2168 VSS VSS:2169 0.207100
2169 VSS VSS:2170 0.271300
2170 VSS VSS:2171 0.248200
2171 VSS VSS:2172 0.227900
2172 VSS VSS:2173 0.166900
2173 VSS VSS:2174 0.109700
2174 VSS VSS:2175 0.235000
2175 VSS VSS:2176 0.164100
2176 VSS VSS:2177 0.218600
2177 VSS VSS:2178 0.156700
2178 VSS VSS:2179 0.041800
2179 VSS VSS:2180 0.184700
2180 VSS VSS:2181 0.244400
2181 VSS VSS:2182 0.248300
2182 VSS VSS:2183 0.125900
2183 VSS VSS:2184 0.144300
2184 VSS VSS:2185 0.271300
2185 VSS VSS:2186 0.266500
2186 VSS VSS:2187 0.168200
2187 VSS VSS:2188 0.227800
2188 VSS VSS:2189 0.185200
2189 VSS VSS:2190 0.209200
2190 VSS VSS:2191 0.274600
2191 VSS VSS:2192 0.244600
2192 VSS VSS:2193 0.222000
2193 VSS VSS:2194 0.162100
2194 VSS VSS:2195 0.110400
2195 VSS VSS:2196 0.243400
2196 VSS VSS:2197 0.172900
2197 VSS VSS:2198 0.209800
2198 VSS VSS:2199 0.148100
2199 VSS VSS:2200 0.038000
2200 VSS VSS:2201 0.177100
2201 VSS VSS:2202 0.252700
2202 VSS VSS:2203 0.240600
2203 VSS VSS:2204 0.124300
2204 VSS VSS:2205 0.149100
2205 VSS VSS:2206 0.279300
2206 VSS VSS:2207 0.259300
2207 VSS VSS:2208 0.164700
2208 VSS VSS:2209 0.222600
2209 VSS VSS:2210 0.183600
2210 VSS VSS:2211 0.213800
2211 VSS VSS:2212 0.281300
2212 VSS VSS:2213 0.243400
2213 VSS VSS:2214 0.219700
2214 VSS VSS:2215 0.160400
2215 VSS VSS:2216 0.111200
2216 VSS VSS:2217 0.247100
2217 VSS VSS:2218 0.176800
2218 VSS VSS:2219 0.205900
2219 VSS VSS:2220 0.144300
2220 VSS VSS:2221 0.036700
2221 VSS VSS:2222 0.173700
2222 VSS VSS:2223 0.256200
2223 VSS VSS:2224 0.237100
2224 VSS VSS:2225 0.123600
2225 VSS VSS:2226 0.151200
2226 VSS VSS:2227 0.282600
2227 VSS VSS:2228 0.256000
2228 VSS VSS:2229 0.163000
2229 VSS VSS:2230 0.220100
2230 VSS VSS:2231 0.182800
2231 VSS VSS:2232 0.215600
2232 VSS VSS:2233 0.284100
2233 VSS VSS:2234 0.253200
2234 VSS VSS:2235 0.205200
2235 VSS VSS:2236 0.169900
2236 VSS VSS:2237 0.209800
2237 VSS VSS:2238 0.161400
2238 VSS VSS:2239 0.152400
2239 VSS VSS:2240 0.197200
2240 VSS VSS:2241 0.185800
2241 VSS VSS:2242 0.242100
2242 VSS VSS:2243 0.154100
2243 VSS VSS:2244 0.126300
2244 VSS VSS:2245 0.184400
2245 VSS VSS:2246 0.053800
2246 VSS VSS:2247 0.052800
2247 VSS VSS:2248 0.081500
2248 VSS VSS:2249 0.223900
2249 VSS VSS:2250 0.152700
2250 VSS VSS:2251 0.053300
2251 VSS VSS:2252 0.069700
2252 VSS VSS:2253 0.217200
2253 VSS VSS:2254 0.166900
2254 VSS VSS:2255 0.041200
2255 VSS VSS:2256 0.233200
2256 VSS VSS:2257 0.227900
2257 VSS VSS:2258 0.234600
2258 VSS VSS:2259 0.106900
2259 VSS VSS:2260 0.126100
2260 VSS VSS:2261 0.163600
2261 VSS VSS:2262 0.183800
2262 VSS VSS:2263 0.208300
2263 VSS VSS:2264 0.222100
2264 VSS VSS:2265 0.253200
2265 VSS VSS:2266 0.270300
2266 VSS VSS:2267 0.252000
2267 VSS VSS:2268 0.250800
2268 VSS VSS:2269 0.128700
2269 VSS VSS:2270 0.131300
2270 VSS VSS:2271 0.133800
2271 VSS VSS:2272 0.136400
2272 VSS VSS:2273 0.139000
2273 VSS VSS:2274 0.141600
2274 VSS VSS:2275 0.164600
2275 VSS VSS:2276 0.161800
2276 VSS VSS:2277 0.220700
2277 VSS VSS:2278 0.217500
2278 VSS VSS:2279 0.149500
2279 VSS VSS:2280 0.146300
2280 VSS VSS:2281 0.119000
2281 VSS VSS:2282 0.115800
2282 VSS VSS:2283 0.249600
2283 VSS VSS:2284 0.204900
2284 VSS VSS:2285 0.170200
2285 VSS VSS:2286 0.207500
2286 VSS VSS:2287 0.194600
2287 VSS VSS:2288 0.183200
2288 VSS VSS:2289 0.245100
2289 VSS VSS:2290 0.144300
2290 VSS VSS:2291 0.159000
2291 VSS VSS:2292 0.181300
2292 VSS VSS:2293 0.053100
2293 VSS VSS:2294 0.053200
2294 VSS VSS:2295 0.084100
2295 VSS VSS:2296 0.214300
2296 VSS VSS:2297 0.143100
2297 VSS VSS:2298 0.056200
2298 VSS VSS:2299 0.072800
2299 VSS VSS:2300 0.112600
2300 VSS VSS:2301 0.213900
2301 VSS VSS:2302 0.043000
2302 VSS VSS:2303 0.236400
2303 VSS VSS:2304 0.224800
2304 VSS VSS:2305 0.237700
2305 VSS VSS:2306 0.108600
2306 VSS VSS:2307 0.128300
2307 VSS VSS:2308 0.165100
2308 VSS VSS:2309 0.185600
2309 VSS VSS:2310 0.210500
2310 VSS VSS:2311 0.224500
2311 VSS VSS:2312 0.255800
2312 VSS VSS:2313 0.273000
2313 VSS VSS:2314 0.236300
2314 VSS VSS:2315 0.225400
2315 VSS VSS:2316 0.184200
2316 VSS VSS:2317 0.124400
2317 VSS VSS:2318 0.195900
2318 VSS VSS:2319 0.188800
2319 VSS VSS:2320 0.227100
2320 VSS VSS:2321 0.065300
2321 VSS VSS:2322 0.099500
2322 VSS VSS:2323 0.225200
2323 VSS VSS:2324 0.050800
2324 VSS VSS:2325 0.215000
2325 VSS VSS:2326 0.131600
2326 VSS VSS:2327 0.031300
2327 VSS VSS:2328 0.021000
2328 VSS VSS:2329 0.030000
2329 VSS VSS:2330 0.071500
2330 VSS VSS:2331 0.167200
2331 VSS VSS:2332 0.224300
2332 VSS VSS:2333 0.048700
2333 VSS VSS:2334 0.221900
2334 VSS VSS:2335 0.045200
2335 VSS VSS:2336 0.220700
2336 VSS VSS:2337 0.202300
2337 VSS VSS:2338 0.201700
2338 VSS VSS:2339 0.201100
2339 VSS VSS:2340 0.229200
2340 VSS VSS:2341 0.176500
2341 VSS VSS:2342 0.177400
2342 VSS VSS:2343 0.178500
2343 VSS VSS:2344 0.179500
2344 VSS VSS:2345 0.198800
2345 VSS VSS:2346 0.191800
2346 VSS VSS:2347 0.189600
2347 VSS VSS:2348 0.153600
2348 VSS VSS:2349 0.152300
2349 VSS VSS:2350 0.151000
2350 VSS VSS:2351 0.149900
2351 VSS VSS:2352 0.140200
2352 VSS VSS:2353 0.138400
2353 VSS VSS:2354 0.120200
2354 VSS VSS:2355 0.117400
2355 VSS VSS:2356 0.183400
2356 VSS VSS:2357 0.127700
2357 VSS VSS:2358 0.126100
2358 VSS VSS:2359 0.129500
2359 VSS VSS:2360 0.092000
2360 VSS VSS:2361 0.102100
2361 VSS VSS:2362 0.103800
2362 VSS VSS:2363 0.105600
2363 VSS VSS:2364 0.107400
2364 VSS VSS:2365 0.109400
2365 VSS VSS:2366 0.111300
2366 VSS VSS:2367 0.152000
2367 VSS VSS:2368 0.149300
2368 VSS VSS:2369 0.069700
2369 VSS VSS:2370 0.136900
2370 VSS VSS:2371 0.139900
2371 VSS VSS:2372 0.154700
2372 VSS VSS:2373 0.157700
2373 VSS VSS:2374 0.160700
2374 VSS VSS:2375 0.163700
2375 VSS VSS:2376 0.138600
2376 VSS VSS:2377 0.135600
2377 VSS VSS:2378 0.132700
2378 VSS VSS:2379 0.129700
2379 VSS VSS:2380 0.102400
2380 VSS VSS:2381 0.091100
2381 VSS VSS:2382 0.042800
2382 VSS VSS:2383 0.205500
2383 VSS VSS:2384 0.003800
2384 VSS VSS:2385 0.001000
2385 VSS VSS:2386 0.002700
2386 VSS VSS:2387 0.005900
2387 VSS VSS:2388 0.148500
2388 VSS VSS:2389 0.103000
2389 VSS VSS:2390 0.106200
2390 VSS VSS:2391 0.159600
2391 VSS VSS:2392 0.162800
2392 VSS VSS:2393 0.166100
2393 VSS VSS:2394 0.175900
2394 VSS VSS:2395 0.179200
2395 VSS VSS:2396 0.097600
2396 VSS VSS:2397 0.200300
2397 VSS VSS:2398 0.085100
2398 VSS VSS:2399 0.082200
2399 VSS VSS:2400 0.079300
2400 VSS VSS:2401 0.061800
2401 VSS VSS:2402 0.064500
2402 VSS VSS:2403 0.197400
2403 VSS VSS:2404 0.194300
2404 VSS VSS:2405 0.191300
2405 VSS VSS:2406 0.143700
2406 VSS VSS:2407 0.140800
2407 VSS VSS:2408 0.137800
2408 VSS VSS:2409 0.134900
2409 VSS VSS:2410 0.152600
2410 VSS VSS:2411 0.149700
2411 VSS VSS:2412 0.146800
2412 VSS VSS:2413 0.068500
2413 VSS VSS:2414 0.068700
2414 VSS VSS:2415 0.069900
2415 VSS VSS:2416 0.071300
2416 VSS VSS:2417 0.072800
2417 VSS VSS:2418 0.250100
2418 VSS VSS:2419 0.222500
2419 VSS VSS:2420 0.219600
2420 VSS VSS:2421 0.110800
2421 VSS VSS:2422 0.146000
2422 VSS VSS:2423 0.148500
2423 VSS VSS:2424 0.131000
2424 VSS VSS:2425 0.129500
2425 VSS VSS:2426 0.128100
2426 VSS VSS:2427 0.126800
2427 VSS VSS:2428 0.122200
2428 VSS VSS:2429 0.166000
2429 VSS VSS:2430 0.168200
2430 VSS VSS:2431 0.170500
2431 VSS VSS:2432 0.172700
2432 VSS VSS:2433 0.191900
2433 VSS VSS:2434 0.194400
2434 VSS VSS:2435 0.238700
2435 VSS VSS:2436 0.153400
2436 VSS VSS:2437 0.153900
2437 VSS VSS:2438 0.154500
2438 VSS VSS:2439 0.155200
2439 VSS VSS:2440 0.227500
2440 VSS VSS:2441 0.180300
2441 VSS VSS:2442 0.274800
2442 VSS VSS:2443 0.208100
2443 VSS VSS:2444 0.219400
2444 VSS VSS:2445 0.200600
2445 VSS VSS:2446 0.227100
2446 VSS VSS:2447 0.180700
2447 VSS VSS:2448 0.196600
2448 VSS VSS:2449 0.187500
2449 VSS VSS:2450 0.148700
2450 VSS VSS:2451 0.136700
2451 VSS VSS:2452 0.119500
2452 VSS VSS:2453 0.117000
2453 VSS VSS:2454 0.185900
2454 VSS VSS:2455 0.124600
2455 VSS VSS:2456 0.131300
2456 VSS VSS:2457 0.136000
2457 VSS VSS:2458 0.097800
2458 VSS VSS:2459 0.113400
2459 VSS VSS:2460 0.146600
2460 VSS VSS:2461 0.071500
2461 VSS VSS:2462 0.076800
2462 VSS VSS:2463 0.142800
2463 VSS VSS:2464 0.166700
2464 VSS VSS:2465 0.126700
2465 VSS VSS:2466 0.089600
2466 VSS VSS:2467 0.076800
2467 VSS VSS:2468 0.040500
2468 VSS VSS:2469 0.202300
2469 VSS VSS:2470 0.009100
2470 VSS VSS:2471 0.145200
2471 VSS VSS:2472 0.109500
2472 VSS VSS:2473 0.182400
2473 VSS VSS:2474 0.100600
2474 VSS VSS:2475 0.203500
2475 VSS VSS:2476 0.076400
2476 VSS VSS:2477 0.067300
2477 VSS VSS:2478 0.188200
2478 VSS VSS:2479 0.132000
2479 VSS VSS:2480 0.235100
2480 VSS VSS:2481 0.143900
2481 VSS VSS:2482 0.064500
2482 VSS VSS:2483 0.074400
2483 VSS VSS:2484 0.253300
2484 VSS VSS:2485 0.216700
2485 VSS VSS:2486 0.109100
2486 VSS VSS:2487 0.151000
2487 VSS VSS:2488 0.125500
2488 VSS VSS:2489 0.118400
2489 VSS VSS:2490 0.175000
2490 VSS VSS:2491 0.196900
2491 VSS VSS:2492 0.227200
2492 VSS VSS:2493 0.151500
2493 VSS VSS:2494 0.156000
2494 VSS VSS:2495 0.218000
2495 VSS VSS:2496 0.177100
2496 VSS VSS:2497 0.263500
2497 VSS VSS:2498 0.200900
2498 VSS VSS:2499 0.235500
2499 VSS VSS:2500 0.229700
2500 VSS VSS:2501 0.129000
2501 VSS VSS:2502 0.234700
2502 VSS VSS:2503 0.234500
2503 VSS VSS:2504 0.213100
2504 VSS VSS:2505 0.236200
2505 VSS VSS:2506 0.157000
2506 VSS VSS:2507 0.201100
2507 VSS VSS:2508 0.220000
2508 VSS VSS:2509 0.164500
2509 VSS VSS:2510 0.129200
2510 VSS VSS:2511 0.255300
2511 VSS VSS:2512 0.240400
2512 VSS VSS:2513 0.172700
2513 VSS VSS:2514 0.140500
2514 VSS VSS:2515 0.255700
2515 VSS VSS:2516 0.166100
2516 VSS VSS:2517 0.213700
2517 VSS VSS:2518 0.232500
2518 VSS VSS:2519 0.160600
2519 VSS VSS:2520 0.204800
2520 VSS VSS:2521 0.223800
2521 VSS VSS:2522 0.168300
2522 VSS VSS:2523 0.126100
2523 VSS VSS:2524 0.252000
2524 VSS VSS:2525 0.244000
2525 VSS VSS:2526 0.175900
2526 VSS VSS:2527 0.143200
2527 VSS VSS:2528 0.259100
2528 VSS VSS:2529 0.168400
2529 VSS VSS:2530 0.227600
2530 VSS VSS:2531 0.229900
2531 VSS VSS:2532 0.225500
2532 VSS VSS:2533 0.098800
2533 VSS VSS:2534 0.115200
2534 VSS VSS:2535 0.163700
2535 VSS VSS:2536 0.177100
2536 VSS VSS:2537 0.198000
2537 VSS VSS:2538 0.245000
2538 VSS VSS:2539 0.233800
2539 VSS VSS:2540 0.227300
2540 VSS VSS:2541 0.189500
2541 VSS VSS:2542 0.173000
2542 VSS VSS:2543 0.208200
2543 VSS VSS:2544 0.223700
2544 VSS VSS:2545 0.219300
2545 VSS VSS:2546 0.226900
2546 VSS VSS:2547 0.097400
2547 VSS VSS:2548 0.112100
2548 VSS VSS:2549 0.251100
2549 VSS VSS:2550 0.161900
2550 VSS VSS:2551 0.174400
2551 VSS VSS:2552 0.194500
2552 VSS VSS:2553 0.240500
2553 VSS VSS:2554 0.280000
2554 VSS VSS:2555 0.230400
2555 VSS VSS:2556 0.227200
2556 VSS VSS:2557 0.226100
2557 VSS VSS:2558 0.221700
2558 VSS VSS:2559 0.098100
2559 VSS VSS:2560 0.113500
2560 VSS VSS:2561 0.162800
2561 VSS VSS:2562 0.175600
2562 VSS VSS:2563 0.196100
2563 VSS VSS:2564 0.242400
2564 VSS VSS:2565 0.231900
2565 VSS VSS:2566 0.227300
2566 VSS VSS:2567 0.228600
2567 VSS VSS:2568 0.193600
2568 VSS VSS:2569 0.140500
2569 VSS VSS:2570 0.168800
2570 VSS VSS:2571 0.170000
2571 VSS VSS:2572 0.121000
2572 VSS VSS:2573 0.058400
2573 VSS VSS:2574 0.075200
2574 VSS VSS:2575 0.029200
2575 VSS VSS:2576 0.088400
2576 VSS VSS:2577 0.103400
2577 VSS VSS:2578 0.174200
2578 VSS VSS:2579 0.105500
2579 VSS VSS:2580 0.215400
2580 VSS VSS:2581 0.162500
2581 VSS VSS:2582 0.161800
2582 VSS VSS:2583 0.211000
2583 VSS VSS:2584 0.210500
2584 VSS VSS:2585 0.096400
2585 VSS VSS:2586 0.181800
2586 VSS VSS:2587 0.161400
2587 VSS VSS:2588 0.140600
2588 VSS VSS:2589 0.171400
2589 VSS VSS:2590 0.188300
2590 VSS VSS:2591 0.230300
2591 VSS VSS:2592 0.129400
2592 VSS VSS:2593 0.123900
2593 VSS VSS:2594 0.232700
2594 VSS VSS:2595 0.225700
2595 VSS VSS:2596 0.200000
2596 VSS VSS:2597 0.188400
2597 VSS VSS:2598 0.178600
2598 VSS VSS:2599 0.170500
2599 VSS VSS:2600 0.151600
2600 VSS VSS:2601 0.147000
2601 VSS VSS:2602 0.142600
2602 VSS VSS:2603 0.124500
2603 VSS VSS:2604 0.248500
2604 VSS VSS:2605 0.180600
2605 VSS VSS:2606 0.281400
2606 VSS VSS:2607 0.206900
2607 VSS VSS:2608 0.211500
2608 VSS VSS:2609 0.178100
2609 VSS VSS:2610 0.170800
2610 VSS VSS:2611 0.134300
2611 VSS VSS:2612 0.116700
2612 VSS VSS:2613 0.088500
2613 VSS VSS:2614 0.105100
2614 VSS VSS:2615 0.110400
2615 VSS VSS:2616 0.113700
2616 VSS VSS:2617 0.119500
2617 VSS VSS:2618 0.160700
2618 VSS VSS:2619 0.022900
2619 VSS VSS:2620 0.048300
2620 VSS VSS:2621 0.108200
2621 VSS VSS:2622 0.169800
2622 VSS VSS:2623 0.076100
2623 VSS VSS:2624 0.101200
2624 VSS VSS:2625 0.226900
2625 VSS VSS:2626 0.114400
2626 VSS VSS:2627 0.175600
2627 VSS VSS:2628 0.194200
2628 VSS VSS:2629 0.243100
2629 VSS VSS:2630 0.093900
2630 VSS VSS:2631 0.115400
2631 VSS VSS:2632 0.176400
2632 VSS VSS:2633 0.188600
2633 VSS VSS:2634 0.205100
2634 VSS VSS:2635 0.217000
2635 VSS VSS:2636 0.272100
2636 VSS VSS:2637 0.181600
2637 VSS VSS:2638 0.187300
2638 VSS VSS:2639 0.206500
2639 VSS VSS:2640 0.135700
2640 VSS VSS:2641 0.188300
2641 VSS VSS:2642 0.062700
2642 VSS VSS:2643 0.194300
2643 VSS VSS:2644 0.145400
2644 VSS VSS:2645 0.213600
2645 VSS VSS:2646 0.205800
2646 VSS VSS:2647 0.211300
2647 VSS VSS:2648 0.205000
2648 VSS VSS:2649 0.231300
2649 VSS VSS:2650 0.209500
2650 VSS VSS:2651 0.205000
2651 VSS VSS:2652 0.200500
2652 VSS VSS:2653 0.194100
2653 VSS VSS:2654 0.155300
2654 VSS VSS:2655 0.151300
2655 VSS VSS:2656 0.147400
2656 VSS VSS:2657 0.142000
2657 VSS VSS:2658 0.151700
2658 VSS VSS:2659 0.208500
2659 VSS VSS:2660 0.166400
2660 VSS VSS:2661 0.155500
2661 VSS VSS:2662 0.204200
2662 VSS VSS:2663 0.211800
2663 VSS VSS:2664 0.191900
2664 VSS VSS:2665 0.146700
2665 VSS VSS:2666 0.166900
2666 VSS VSS:2667 0.143300
2667 VSS VSS:2668 0.147100
2668 VSS VSS:2669 0.159300
2669 VSS VSS:2670 0.163600
2670 VSS VSS:2671 0.168000
2671 VSS VSS:2672 0.122900
2672 VSS VSS:2673 0.058600
2673 VSS VSS:2674 0.029400
2674 VSS VSS:2675 0.176900
2675 VSS VSS:2676 0.159900
2676 VSS VSS:2677 0.125000
2677 VSS VSS:2678 0.130700
2678 VSS VSS:2679 0.147800
2679 VSS VSS:2680 0.153500
2680 VSS VSS:2681 0.159200
2681 VSS VSS:2682 0.173700
2682 VSS VSS:2683 0.179400
2683 VSS VSS:2684 0.196800
2684 VSS VSS:2685 0.202600
2685 VSS VSS:2686 0.208400
2686 VSS VSS:2687 0.205400
2687 VSS VSS:2688 0.173700
2688 VSS VSS:2689 0.179200
2689 VSS VSS:2690 0.184800
2690 VSS VSS:2691 0.196700
2691 VSS VSS:2692 0.202300
2692 VSS VSS:2693 0.208000
2693 VSS VSS:2694 0.163400
2694 VSS VSS:2695 0.163700
2695 VSS VSS:2696 0.232800
2696 VSS VSS:2697 0.179900
2697 VSS VSS:2698 0.203600
2698 VSS VSS:2699 0.202800
2699 VSS VSS:2700 0.203000
2700 VSS VSS:2701 0.166200
2701 VSS VSS:2702 0.155800
2702 VSS VSS:2703 0.093900
2703 VSS VSS:2704 0.162300
2704 VSS VSS:2705 0.186100
2705 VSS VSS:2706 0.181000
2706 VSS VSS:2707 0.176000
2707 VSS VSS:2708 0.097600
2708 VSS VSS:2709 0.085700
2709 VSS VSS:2710 0.157500
2710 VSS VSS:2711 0.143000
2711 VSS VSS:2712 0.137300
2712 VSS VSS:2713 0.131700
2713 VSS VSS:2714 0.200500
2714 VSS VSS:2715 0.066600
2715 VSS VSS:2716 0.120600
2716 VSS VSS:2717 0.234400
2717 VSS VSS:2718 0.152500
2718 VSS VSS:2719 0.223900
2719 VSS VSS:2720 0.179000
2720 VSS VSS:2721 0.270600
2721 VSS VSS:2722 0.205300
2722 VSS VSS:2723 0.233300
2723 VSS VSS:2724 0.213300
2724 VSS VSS:2725 0.186900
2725 VSS VSS:2726 0.148300
2726 VSS VSS:2727 0.127600
2727 VSS VSS:2728 0.123800
2728 VSS VSS:2729 0.154600
2729 VSS VSS:2730 0.243800
2730 VSS VSS:2731 0.171800
2731 VSS VSS:2732 0.160900
2732 VSS VSS:2733 0.183500
2733 VSS VSS:2734 0.028700
2734 VSS VSS:2735 0.031000
2735 VSS VSS:2736 0.181500
2736 VSS VSS:2737 0.024800
2737 VSS VSS:2738 0.033700
2738 VSS VSS:2739 0.199000
2739 VSS VSS:2740 0.199000
2740 VSS VSS:2741 0.199400
2741 VSS VSS:2742 0.200100
2742 VSS VSS:2743 0.201000
2743 VSS VSS:2744 0.161800
2744 VSS VSS:2745 0.152000
2745 VSS VSS:2746 0.147000
2746 VSS VSS:2747 0.142200
2747 VSS VSS:2748 0.137700
2748 VSS VSS:2749 0.202300
2749 VSS VSS:2750 0.133500
2750 VSS VSS:2751 0.199600
2751 VSS VSS:2752 0.182500
2752 VSS VSS:2753 0.160000
2753 VSS VSS:2754 0.201500
2754 VSS VSS:2755 0.169300
2755 VSS VSS:2756 0.032500
2756 VSS VSS:2757 0.170000
2757 VSS VSS:2758 0.111100
2758 VSS VSS:2759 0.056200
2759 VSS VSS:2760 0.043600
2760 VSS VSS:2761 0.033900
2761 VSS VSS:2762 0.151900
2762 VSS VSS:2763 0.106500
2763 VSS VSS:2764 0.122200
2764 VSS VSS:2765 0.129700
2765 VSS VSS:2766 0.245100
2766 VSS VSS:2767 0.238500
2767 VSS VSS:2768 0.224000
2768 VSS VSS:2769 0.199400
2769 VSS VSS:2770 0.198900
2770 VSS VSS:2771 0.181300
2771 VSS VSS:2772 0.180200
2772 VSS VSS:2773 0.166900
2773 VSS VSS:2774 0.156800
2774 VSS VSS:2775 0.059400
2775 VSS VSS:2776 0.062600
2776 VSS VSS:2777 0.046000
2777 VSS VSS:2778 0.048500
2778 VSS VSS:2779 0.154900
2779 VSS VSS:2780 0.157900
2780 VSS VSS:2781 0.109100
2781 VSS VSS:2782 0.111800
2782 VSS VSS:2783 0.132600
2783 VSS VSS:2784 0.135400
2784 VSS VSS:2785 0.138200
2785 VSS VSS:2786 0.141100
2786 VSS VSS:2787 0.247700
2787 VSS VSS:2788 0.250400
2788 VSS VSS:2789 0.253000
2789 VSS VSS:2790 0.255700
2790 VSS VSS:2791 0.226500
2791 VSS VSS:2792 0.229000
2792 VSS VSS:2793 0.199200
2793 VSS VSS:2794 0.198900
2794 VSS VSS:2795 0.164500
2795 VSS VSS:2796 0.154600
2796 VSS VSS:2797 0.198900
2797 VSS VSS:2798 0.159100
2798 VSS VSS:2799 0.199200
2799 VSS VSS:2800 0.199700
2800 VSS VSS:2801 0.200500
2801 VSS VSS:2802 0.201600
2802 VSS VSS:2803 0.149500
2803 VSS VSS:2804 0.144600
2804 VSS VSS:2805 0.139900
2805 VSS VSS:2806 0.135500
2806 VSS VSS:2807 0.215000
2807 VSS VSS:2808 0.185600
2808 VSS VSS:2809 0.150100
2809 VSS VSS:2810 0.129800
2810 VSS VSS:2811 0.126400
2811 VSS VSS:2812 0.246700
2812 VSS VSS:2813 0.179200
2813 VSS VSS:2814 0.064500
2814 VSS VSS:2815 0.097900
2815 VSS VSS:2816 0.182500
2816 VSS VSS:2817 0.065900
2817 VSS VSS:2818 0.203600
2818 VSS VSS:2819 0.051100
2819 VSS VSS:2820 0.160900
2820 VSS VSS:2821 0.124900
2821 VSS VSS:2822 0.144000
2822 VSS VSS:2823 0.258300
2823 VSS VSS:2824 0.241100
2824 VSS VSS:2825 0.175600
2825 VSS VSS:2826 0.155000
2826 VSS VSS:2827 0.121100
2827 VSS VSS:2828 0.180900
2828 VSS VSS:2829 0.129300
2829 VSS VSS:2830 0.134200
2830 VSS VSS:2831 0.091000
2831 VSS VSS:2832 0.100500
2832 VSS VSS:2833 0.154800
2833 VSS VSS:2834 0.074700
2834 VSS VSS:2835 0.134000
2835 VSS VSS:2836 0.151700
2836 VSS VSS:2837 0.141600
2837 VSS VSS:2838 0.105200
2838 VSS VSS:2839 0.094100
2839 VSS VSS:2840 0.007000
2840 VSS VSS:2841 0.099800
2841 VSS VSS:2842 0.160000
2842 VSS VSS:2843 0.094500
2843 VSS VSS:2844 0.197100
2844 VSS VSS:2845 0.059200
2845 VSS VSS:2846 0.085900
2846 VSS VSS:2847 0.146700
2847 VSS VSS:2848 0.069700
2848 VSS VSS:2849 0.067500
2849 VSS VSS:2850 0.247000
2850 VSS VSS:2851 0.225500
2851 VSS VSS:2852 0.112600
2852 VSS VSS:2853 0.143500
2853 VSS VSS:2854 0.132500
2854 VSS VSS:2855 0.123200
2855 VSS VSS:2856 0.163800
2856 VSS VSS:2857 0.189400
2857 VSS VSS:2858 0.241300
2858 VSS VSS:2859 0.154000
2859 VSS VSS:2860 0.229600
2860 VSS VSS:2861 0.181200
2861 VSS VSS:2862 0.277200
2862 VSS VSS:2863 0.209700
2863 VSS VSS:2864 0.186000
2864 VSS VSS:2865 0.188900
2865 VSS VSS:2866 0.122400
2866 VSS VSS:2867 0.131500
2867 VSS VSS:2868 0.192000
2868 VSS VSS:2869 0.127600
2869 VSS VSS:2870 0.098700
2870 VSS VSS:2871 0.224800
2871 VSS VSS:2872 0.079500
2872 VSS VSS:2873 0.229700
2873 VSS VSS:2874 0.126100
2874 VSS VSS:2875 0.187400
2875 VSS VSS:2876 0.193300
2876 VSS VSS:2877 0.194900
2877 VSS VSS:2878 0.196500
2878 VSS VSS:2879 0.198200
2879 VSS VSS:2880 0.191100
2880 VSS VSS:2881 0.199900
2881 VSS VSS:2882 0.202200
2882 VSS VSS:2883 0.204600
2883 VSS VSS:2884 0.207000
2884 VSS VSS:2885 0.123300
2885 VSS VSS:2886 0.127800
2886 VSS VSS:2887 0.129200
2887 VSS VSS:2888 0.130600
2888 VSS VSS:2889 0.132000
2889 VSS VSS:2890 0.128900
2890 VSS VSS:2891 0.119400
2891 VSS VSS:2892 0.117100
2892 VSS VSS:2893 0.114800
2893 VSS VSS:2894 0.112500
2894 VSS VSS:2895 0.188900
2895 VSS VSS:2896 0.177000
2896 VSS VSS:2897 0.173900
2897 VSS VSS:2898 0.170900
2898 VSS VSS:2899 0.167900
2899 VSS VSS:2900 0.124800
2900 VSS VSS:2901 0.113800
2901 VSS VSS:2902 0.111100
2902 VSS VSS:2903 0.108300
2903 VSS VSS:2904 0.105600
2904 VSS VSS:2905 0.095400
2905 VSS VSS:2906 0.082800
2906 VSS VSS:2907 0.079600
2907 VSS VSS:2908 0.076400
2908 VSS VSS:2909 0.073100
2909 VSS VSS:2910 0.221600
2910 VSS VSS:2911 0.209000
2911 VSS VSS:2912 0.205800
2912 VSS VSS:2913 0.202500
2913 VSS VSS:2914 0.199300
2914 VSS VSS:2915 0.076300
2915 VSS VSS:2916 0.063700
2916 VSS VSS:2917 0.060500
2917 VSS VSS:2918 0.057300
2918 VSS VSS:2919 0.054100
2919 VSS VSS:2920 0.226500
2920 VSS VSS:2921 0.214000
2921 VSS VSS:2922 0.210800
2922 VSS VSS:2923 0.207600
2923 VSS VSS:2924 0.204400
2924 VSS VSS:2925 0.123000
2925 VSS VSS:2926 0.110800
2926 VSS VSS:2927 0.107700
2927 VSS VSS:2928 0.104500
2928 VSS VSS:2929 0.101400
2929 VSS VSS:2930 0.188900
2930 VSS VSS:2931 0.193300
2931 VSS VSS:2932 0.124400
2932 VSS VSS:2933 0.126400
2933 VSS VSS:2934 0.185800
2934 VSS VSS:2935 0.121900
2935 VSS VSS:2936 0.092200
2936 VSS VSS:2937 0.218300
2937 VSS VSS:2938 0.073100
2938 VSS VSS:2939 0.223300
2939 VSS VSS:2940 0.119800
2940 VSS VSS:2941 0.190000
2941 VSS VSS:2942 0.195000
2942 VSS VSS:2943 0.125200
2943 VSS VSS:2944 0.124600
2944 VSS VSS:2945 0.183500
2945 VSS VSS:2946 0.119800
2946 VSS VSS:2947 0.089800
2947 VSS VSS:2948 0.215900
2948 VSS VSS:2949 0.070600
2949 VSS VSS:2950 0.220900
2950 VSS VSS:2951 0.117500
2951 VSS VSS:2952 0.191700
2952 VSS VSS:2953 0.197600
2953 VSS VSS:2954 0.126600
2954 VSS VSS:2955 0.121800
2955 VSS VSS:2956 0.180000
2956 VSS VSS:2957 0.116600
2957 VSS VSS:2958 0.086100
2958 VSS VSS:2959 0.212200
2959 VSS VSS:2960 0.067000
2960 VSS VSS:2961 0.217200
2961 VSS VSS:2962 0.113900
2962 VSS VSS:2963 0.199900
2963 VSS VSS:2964 0.209400
2964 VSS VSS:2965 0.110300
2965 VSS VSS:2966 0.196100
2966 VSS VSS:2967 0.050900
2967 VSS VSS:2968 0.201900
2968 VSS VSS:2969 0.212100
2969 VSS VSS:2970 0.107700
2970 VSS VSS:2971 0.192300
2971 VSS VSS:2972 0.047200
2972 VSS VSS:2973 0.207200
2973 VSS VSS:2974 0.141700
2974 VSS VSS:2975 0.208500
2975 VSS VSS:2976 0.143200
2976 VSS VSS:2977 0.210000
2977 VSS VSS:2978 0.201000
2978 VSS VSS:2979 0.189800
2979 VSS VSS:2980 0.117800
2980 VSS VSS:2981 0.144700
2981 VSS VSS:2982 0.141300
2982 VSS VSS:2983 0.145000
2983 VSS VSS:2984 0.148900
2984 VSS VSS:2985 0.161200
2985 VSS VSS:2986 0.165500
2986 VSS VSS:2987 0.125200
2987 VSS VSS:2988 0.059000
2988 VSS VSS:2989 0.180100
2989 VSS VSS:2990 0.156700
2990 VSS VSS:2991 0.121900
2991 VSS VSS:2992 0.127500
2992 VSS VSS:2993 0.133200
2993 VSS VSS:2994 0.150300
2994 VSS VSS:2995 0.156100
2995 VSS VSS:2996 0.170500
2996 VSS VSS:2997 0.176300
2997 VSS VSS:2998 0.182100
2998 VSS VSS:2999 0.199400
2999 VSS VSS:3000 0.205200
3000 VSS VSS:3001 0.170600
3001 VSS VSS:3002 0.176200
3002 VSS VSS:3003 0.181800
3003 VSS VSS:3004 0.193600
3004 VSS VSS:3005 0.199200
3005 VSS VSS:3006 0.204900
3006 VSS VSS:3007 0.166400
3007 VSS VSS:3008 0.179100
3008 VSS VSS:3009 0.162800
3009 VSS VSS:3010 0.156800
3010 VSS VSS:3011 0.163600
3011 VSS VSS:3012 0.165100
3012 VSS VSS:3013 0.160200
3013 VSS VSS:3014 0.159900
3014 VSS VSS:3015 0.167800
3015 VSS VSS:3016 0.157300
3016 VSS VSS:3017 0.093000
3017 VSS VSS:3018 0.165000
3018 VSS VSS:3019 0.183200
3019 VSS VSS:3020 0.178200
3020 VSS VSS:3021 0.173100
3021 VSS VSS:3022 0.099600
3022 VSS VSS:3023 0.088000
3023 VSS VSS:3024 0.154200
3024 VSS VSS:3025 0.139800
3025 VSS VSS:3026 0.134100
3026 VSS VSS:3027 0.128400
3027 VSS VSS:3028 0.067400
3028 VSS VSS:3029 0.121200
3029 VSS VSS:3030 0.236300
3030 VSS VSS:3031 0.152900
3031 VSS VSS:3032 0.225400
3032 VSS VSS:3033 0.179500
3033 VSS VSS:3034 0.272400
3034 VSS VSS:3035 0.206500
3035 VSS VSS:3036 0.169000
3036 VSS VSS:3037 0.158400
3037 VSS VSS:3038 0.167100
3038 VSS VSS:3039 0.151800
3039 VSS VSS:3040 0.211700
3040 VSS VSS:3041 0.157300
3041 VSS VSS:3042 0.207100
3042 VSS VSS:3043 0.202600
3043 VSS VSS:3044 0.198200
3044 VSS VSS:3045 0.153200
3045 VSS VSS:3046 0.149300
3046 VSS VSS:3047 0.145500
3047 VSS VSS:3048 0.196100
3048 VSS VSS:3049 0.143700
3049 VSS VSS:3050 0.169100
3050 VSS VSS:3051 0.158200
3051 VSS VSS:3052 0.153700
3052 VSS VSS:3053 0.154800
3053 VSS VSS:3054 0.187600
3054 VSS VSS:3055 0.210600
3055 VSS VSS:3056 0.229100
3056 VSS VSS:3057 0.258300
3057 VSS VSS:3058 0.281900
3058 VSS VSS:3059 0.184300
3059 VSS VSS:3060 0.214000
3060 VSS VSS:3061 0.232800
3061 VSS VSS:3062 0.261900
3062 VSS VSS:3063 0.285200
3063 VSS VSS:3064 0.133600
3064 VSS VSS:3065 0.164800
3065 VSS VSS:3066 0.103000
3066 VSS VSS:3067 0.069900
3067 VSS VSS:3068 0.201200
3068 VSS VSS:3069 0.098300
3069 VSS VSS:3070 0.135500
3070 VSS VSS:3071 0.161400
3071 VSS VSS:3072 0.100000
3072 VSS VSS:3073 0.066200
3073 VSS VSS:3074 0.197500
3074 VSS VSS:3075 0.094700
3075 VSS VSS:3076 0.125700
3076 VSS VSS:3077 0.127900
3077 VSS VSS:3078 0.151100
3078 VSS VSS:3079 0.136300
3079 VSS VSS:3080 0.185200
3080 VSS VSS:3081 0.153000
3081 VSS VSS:3082 0.161100
3082 VSS VSS:3083 0.139000
3083 VSS VSS:3084 0.188000
3084 VSS VSS:3085 0.155000
3085 VSS VSS:3086 0.164000
3086 VSS VSS:3087 0.141900
3087 VSS VSS:3088 0.190900
3088 VSS VSS:3089 0.157000
3089 VSS VSS:3090 0.144600
3090 VSS VSS:3091 0.193600
3091 VSS VSS:3092 0.162300
3092 VSS VSS:3093 0.031300
3093 VSS VSS:3094 0.164600
3094 VSS VSS:3095 0.030000
3095 VSS VSS:3096 0.204200
3096 VSS VSS:3097 0.034300
3097 VSS VSS:3098 0.206900
3098 VSS VSS:3099 0.036100
3099 VSS VSS:3100 0.176700
3100 VSS VSS:3101 0.179300
3101 VSS VSS:3102 0.181800
3102 VSS VSS:3103 0.184400
3103 VSS VSS:3104 0.187000
3104 VSS VSS:3105 0.189700
3105 VSS VSS:3106 0.192300
3106 VSS VSS:3107 0.195000
3107 VSS VSS:3108 0.193700
3108 VSS VSS:3109 0.191200
3109 VSS VSS:3110 0.101800
3110 VSS VSS:3111 0.227800
3111 VSS VSS:3112 0.018500
3112 VSS VSS:3113 0.069300
3113 VSS VSS:3114 0.169500
3114 VSS VSS:3115 0.191000
3115 VSS VSS:3116 0.195200
3116 VSS VSS:3117 0.105600
3117 VSS VSS:3118 0.231800
3118 VSS VSS:3119 0.014600
3119 VSS VSS:3120 0.065500
3120 VSS VSS:3121 0.172200
3121 VSS VSS:3122 0.133900
3122 VSS VSS:3123 0.061900
3123 VSS VSS:3124 0.191900
3124 VSS VSS:3125 0.131300
3125 VSS VSS:3126 0.060800
3126 VSS VSS:3127 0.188500
3127 VSS VSS:3128 0.129500
3128 VSS VSS:3129 0.060200
3129 VSS VSS:3130 0.186100
3130 VSS VSS:3131 0.127100
3131 VSS VSS:3132 0.059500
3132 VSS VSS:3133 0.182800
3133 VSS VSS:3134 0.095100
3134 VSS VSS:3135 0.094900
3135 VSS VSS:3136 0.082700
3136 VSS VSS:3137 0.065800
3137 VSS VSS:3138 0.119700
3138 VSS VSS:3139 0.231900
3139 VSS VSS:3140 0.152100
3140 VSS VSS:3141 0.221900
3141 VSS VSS:3142 0.178300
3142 VSS VSS:3143 0.268200
3143 VSS VSS:3144 0.203800
3144 VSS VSS:3145 0.096400
3145 VSS VSS:3146 0.092300
3146 VSS VSS:3147 0.079800
3147 VSS VSS:3148 0.065100
3148 VSS VSS:3149 0.119000
3149 VSS VSS:3150 0.229600
3150 VSS VSS:3151 0.151800
3151 VSS VSS:3152 0.220000
3152 VSS VSS:3153 0.177700
3153 VSS VSS:3154 0.265900
3154 VSS VSS:3155 0.202300
3155 VSS VSS:3156 0.171000
3156 VSS VSS:3157 0.167400
3157 VSS VSS:3158 0.081300
3158 VSS VSS:3159 0.064200
3159 VSS VSS:3160 0.081100
3160 VSS VSS:3161 0.081800
3161 VSS VSS:3162 0.061100
3162 VSS VSS:3163 0.046700
3163 VSS VSS:3164 0.081100
3164 VSS VSS:3165 0.058200
3165 VSS VSS:3166 0.081200
3166 VSS VSS:3167 0.055900
3167 VSS VSS:3168 0.081000
3168 VSS VSS:3169 0.051900
3169 VSS VSS:3170 0.081300
3170 VSS VSS:3171 0.049500
3171 VSS VSS:3172 0.082400
3172 VSS VSS:3173 0.043800
3173 VSS VSS:3174 0.084700
3174 VSS VSS:3175 0.036500
3175 VSS VSS:3176 0.085600
3176 VSS VSS:3177 0.034400
3177 VSS VSS:3178 0.087200
3178 VSS VSS:3179 0.031800
3179 VSS VSS:3180 0.070400
3180 VSS VSS:3181 0.089000
3181 VSS VSS:3182 0.069000
3182 VSS VSS:3183 0.066100
3183 VSS VSS:3184 0.090800
3184 VSS VSS:3185 0.095300
3185 VSS VSS:3186 0.174000
3186 VSS VSS:3187 0.179400
3187 VSS VSS:3188 0.194800
3188 VSS VSS:3189 0.200400
3189 VSS VSS:3190 0.067300
3190 VSS VSS:3191 0.093300
3191 VSS VSS:3192 0.177100
3192 VSS VSS:3193 0.198000
3193 VSS VSS:3194 0.073200
3194 VSS VSS:3195 0.086600
3195 VSS VSS:3196 0.066500
3196 VSS VSS:3197 0.068000
3197 VSS VSS:3198 0.178800
3198 VSS VSS:3199 0.175300
3199 VSS VSS:3200 0.182400
3200 VSS VSS:3201 0.184700
3201 VSS VSS:3202 0.232500
3202 VSS VSS:3203 0.236400
3203 VSS VSS:3204 0.155200
3204 VSS VSS:3205 0.137900
3205 VSS VSS:3206 0.153100
3206 VSS VSS:3207 0.082800
3207 VSS VSS:3208 0.183600
3208 VSS VSS:3209 0.152100
3209 VSS VSS:3210 0.134600
3210 VSS VSS:3211 0.085000
3211 VSS VSS:3212 0.184200
3212 VSS VSS:3213 0.171700
3213 VSS VSS:3214 0.192300
3214 VSS VSS:3215 0.167900
3215 VSS VSS:3216 0.188600
3216 VSS VSS:3217 0.212400
3217 VSS VSS:3218 0.208700
3218 VSS VSS:3219 0.173200
3219 VSS VSS:3220 0.114300
3220 VSS VSS:3221 0.177300
3221 VSS VSS:3222 0.118300
3222 VSS VSS:3223 0.126100
3223 VSS VSS:3224 0.123200
3224 VSS VSS:3225 0.119700
3225 VSS VSS:3226 0.158300
3226 VSS VSS:3227 0.166800
3227 VSS VSS:3228 0.150800
3228 VSS VSS:3229 0.094600
3229 VSS VSS:3230 0.122300
3230 VSS VSS:3231 0.126000
3231 VSS VSS:3232 0.156400
3232 VSS VSS:3233 0.169300
3233 VSS VSS:3234 0.172700
3234 VSS VSS:3235 0.156800
3235 VSS VSS:3236 0.088900
3236 VSS VSS:3237 0.153600
3237 VSS VSS:3238 0.092000
3238 VSS VSS:3239 0.093500
3239 VSS VSS:3240 0.152400
3240 VSS VSS:3241 0.090400
3241 VSS VSS:3242 0.152900
3242 VSS VSS:3243 0.088100
3243 VSS VSS:3244 0.153300
3244 VSS VSS:3245 0.187300
3245 VSS VSS:3246 0.191100
3246 VSS VSS:3247 0.114400
3247 VSS VSS:3248 0.117800
3248 VSS VSS:3249 0.222200
3249 VSS VSS:3250 0.225300
3250 VSS VSS:3251 0.228400
3251 VSS VSS:3252 0.232000
3252 VSS VSS:3253 0.242000
3253 VSS VSS:3254 0.239000
3254 VSS VSS:3255 0.235700
3255 VSS VSS:3256 0.253200
3256 VSS VSS:3257 0.256100
3257 VSS VSS:3258 0.231500
3258 VSS VSS:3259 0.234200
*END

*D_NET XcvrSelect 0.055463
*CONN
*P XcvrSelect B
*CAP
1 XcvrSelect:2 0.055463
*RES
1 XcvrSelect XcvrSelect:2 0.167100
*END

*D_NET ZN 0.958365
*CONN
*P ZN B
*CAP
1 ZN:1 0.876459
2 ZN:1 _011_ 0.006813
3 ZN:1 byte_reg[0] 0.011947
4 ZN:1 byte_reg[1] 0.007603
5 ZN:1 clknet_0_clk 0.014355
6 ZN:1 clknet_3_0__leaf_clk 0.007499
7 ZN:1 clknet_3_1__leaf_clk 0.007603
8 ZN:1 clknet_3_5__leaf_clk 0.003801
9 ZN:1 clknet_3_7__leaf_clk 0.007080
10 ZN:1 tx_body_active 0.007603
11 ZN:1 tx_state[7] 0.003801
12 ZN:1 u_stuffer\/_03_ 0.003801
*RES
1 ZN:1 ZN:2 0.461500
2 ZN:1 ZN:3 0.321700
3 ZN:1 ZN:4 0.469700
4 ZN:1 ZN:5 0.317700
5 ZN:1 ZN:6 0.317700
6 ZN:1 ZN:7 0.461500
7 ZN:1 ZN:8 0.321700
8 ZN:1 ZN:9 0.469700
*END

*D_NET ZN 1.937468
*CONN
*P ZN B
*CAP
1 ZN:1 1.855562
2 ZN:1 _011_ 0.006813
3 ZN:1 byte_reg[0] 0.011947
4 ZN:1 byte_reg[1] 0.007603
5 ZN:1 clknet_0_clk 0.014355
6 ZN:1 clknet_3_0__leaf_clk 0.007499
7 ZN:1 clknet_3_1__leaf_clk 0.007603
8 ZN:1 clknet_3_5__leaf_clk 0.003801
9 ZN:1 clknet_3_7__leaf_clk 0.007080
10 ZN:1 tx_body_active 0.007603
11 ZN:1 tx_state[7] 0.003801
12 ZN:1 u_stuffer\/_03_ 0.003801
*RES
1 ZN:1 ZN:2 0.554400
2 ZN:1 ZN:3 0.743100
3 ZN:1 ZN:4 0.246400
4 ZN:1 ZN:5 0.371600
5 ZN:1 ZN:6 0.546200
6 ZN:1 ZN:7 0.734500
7 ZN:1 ZN:8 0.378800
8 ZN:1 ZN:9 0.242700
9 ZN:1 ZN:10 0.546200
10 ZN:1 ZN:11 0.242700
11 ZN:1 ZN:12 0.378800
12 ZN:1 ZN:13 0.734500
13 ZN:1 ZN:14 0.371600
14 ZN:1 ZN:15 0.246400
15 ZN:1 ZN:16 0.554400
16 ZN:1 ZN:17 0.743100
*END

*D_NET ZN 2.085172
*CONN
*P ZN B
*CAP
1 ZN:1 2.003266
2 ZN:1 _011_ 0.006813
3 ZN:1 byte_reg[0] 0.011947
4 ZN:1 byte_reg[1] 0.007603
5 ZN:1 clknet_0_clk 0.014355
6 ZN:1 clknet_3_0__leaf_clk 0.007499
7 ZN:1 clknet_3_1__leaf_clk 0.007603
8 ZN:1 clknet_3_5__leaf_clk 0.003801
9 ZN:1 clknet_3_7__leaf_clk 0.007080
10 ZN:1 tx_body_active 0.007603
11 ZN:1 tx_state[7] 0.003801
12 ZN:1 u_stuffer\/_03_ 0.003801
*RES
1 ZN:1 ZN:2 0.792600
2 ZN:1 ZN:3 0.414000
3 ZN:1 ZN:4 0.603300
4 ZN:1 ZN:5 0.288600
5 ZN:1 ZN:6 0.801600
6 ZN:1 ZN:7 0.594700
7 ZN:1 ZN:8 0.285100
8 ZN:1 ZN:9 0.421400
9 ZN:1 ZN:10 0.594700
10 ZN:1 ZN:11 0.285100
11 ZN:1 ZN:12 0.421400
12 ZN:1 ZN:13 0.792600
13 ZN:1 ZN:14 0.414000
14 ZN:1 ZN:15 0.288600
15 ZN:1 ZN:16 0.603300
16 ZN:1 ZN:17 0.801600
*END

*D_NET ZN 0.958417
*CONN
*P ZN B
*CAP
1 ZN:1 0.876511
2 ZN:1 _011_ 0.006813
3 ZN:1 byte_reg[0] 0.011947
4 ZN:1 byte_reg[1] 0.007603
5 ZN:1 clknet_0_clk 0.014355
6 ZN:1 clknet_3_0__leaf_clk 0.007499
7 ZN:1 clknet_3_1__leaf_clk 0.007603
8 ZN:1 clknet_3_5__leaf_clk 0.003801
9 ZN:1 clknet_3_7__leaf_clk 0.007080
10 ZN:1 tx_body_active 0.007603
11 ZN:1 tx_state[7] 0.003801
12 ZN:1 u_stuffer\/_03_ 0.003801
*RES
1 ZN:1 ZN:2 0.461500
2 ZN:1 ZN:3 0.321700
3 ZN:1 ZN:4 0.469700
4 ZN:1 ZN:5 0.317700
5 ZN:1 ZN:6 0.317700
6 ZN:1 ZN:7 0.461500
7 ZN:1 ZN:8 0.321700
8 ZN:1 ZN:9 0.469700
*END

*D_NET ZN 0.953149
*CONN
*P ZN B
*CAP
1 ZN:1 0.871243
2 ZN:1 _011_ 0.006813
3 ZN:1 byte_reg[0] 0.011947
4 ZN:1 byte_reg[1] 0.007603
5 ZN:1 clknet_0_clk 0.014355
6 ZN:1 clknet_3_0__leaf_clk 0.007499
7 ZN:1 clknet_3_1__leaf_clk 0.007603
8 ZN:1 clknet_3_5__leaf_clk 0.003801
9 ZN:1 clknet_3_7__leaf_clk 0.007080
10 ZN:1 tx_body_active 0.007603
11 ZN:1 tx_state[7] 0.003801
12 ZN:1 u_stuffer\/_03_ 0.003801
*RES
1 ZN:1 ZN:2 0.461500
2 ZN:1 ZN:3 0.321700
3 ZN:1 ZN:4 0.469700
4 ZN:1 ZN:5 0.317700
5 ZN:1 ZN:6 0.317700
6 ZN:1 ZN:7 0.461500
7 ZN:1 ZN:8 0.321700
8 ZN:1 ZN:9 0.469700
*END

*D_NET ZN 0.954112
*CONN
*P ZN B
*CAP
1 ZN:1 0.872206
2 ZN:1 _011_ 0.006813
3 ZN:1 byte_reg[0] 0.011947
4 ZN:1 byte_reg[1] 0.007603
5 ZN:1 clknet_0_clk 0.014355
6 ZN:1 clknet_3_0__leaf_clk 0.007499
7 ZN:1 clknet_3_1__leaf_clk 0.007603
8 ZN:1 clknet_3_5__leaf_clk 0.003801
9 ZN:1 clknet_3_7__leaf_clk 0.007080
10 ZN:1 tx_body_active 0.007603
11 ZN:1 tx_state[7] 0.003801
12 ZN:1 u_stuffer\/_03_ 0.003801
*RES
1 ZN:1 ZN:2 0.622400
2 ZN:1 ZN:3 0.633400
3 ZN:1 ZN:4 0.622400
4 ZN:1 ZN:5 0.488600
5 ZN:1 ZN:6 0.488600
6 ZN:1 ZN:7 0.633400
*END

*D_NET ZN 0.948694
*CONN
*P ZN B
*CAP
1 ZN:1 0.866788
2 ZN:1 _011_ 0.006813
3 ZN:1 byte_reg[0] 0.011947
4 ZN:1 byte_reg[1] 0.007603
5 ZN:1 clknet_0_clk 0.014355
6 ZN:1 clknet_3_0__leaf_clk 0.007499
7 ZN:1 clknet_3_1__leaf_clk 0.007603
8 ZN:1 clknet_3_5__leaf_clk 0.003801
9 ZN:1 clknet_3_7__leaf_clk 0.007080
10 ZN:1 tx_body_active 0.007603
11 ZN:1 tx_state[7] 0.003801
12 ZN:1 u_stuffer\/_03_ 0.003801
*RES
1 ZN:1 ZN:2 0.461500
2 ZN:1 ZN:3 0.321700
3 ZN:1 ZN:4 0.469700
4 ZN:1 ZN:5 0.317700
5 ZN:1 ZN:6 0.317700
6 ZN:1 ZN:7 0.461500
7 ZN:1 ZN:8 0.321700
8 ZN:1 ZN:9 0.469700
*END

*D_NET _000_ 1.556662
*CONN
*P _000_ B
*I _345_:D B
*I _182_:Z B
*CAP
1 _000_ 1.547406
2 _000_ rx_receiving 0.004628
3 _000_ tx_state[5] 0.004628
*RES
1 _000_ _000_:2 13.699400
2 _000_ _000_:3 28.450400
3 _000_ _000_:4 26.144900
4 _000_ _000_:5 15.350900
5 _000_ _345_:D 0.000000
6 _000_ _182_:Z 0.000000
*END

*D_NET _001_ 1.957691
*CONN
*P _001_ B
*I _347_:D B
*I _159_:Z B
*CAP
1 _001_ 1.948435
2 _001_ _053_ 0.004628
3 _001_ rx_out_bit 0.004628
*RES
1 _001_ _001_:2 17.469300
2 _001_ _001_:3 25.230300
3 _001_ _001_:4 18.564400
4 _001_ _001_:5 24.125000
5 _001_ _347_:D 0.000000
6 _001_ _159_:Z 0.000000
*END

*D_NET _002_ 1.702475
*CONN
*P _002_ B
*I _348_:D B
*I _171_:ZN B
*CAP
1 _002_ 1.682099
2 _002_ _012_ 0.011947
3 _002_ _066_ 0.003801
4 _002_ stuff_pending_after 0.004628
*RES
1 _002_ _002_:2 17.095500
2 _002_ _002_:3 23.711500
3 _002_ _002_:4 21.889800
4 _002_ _002_:5 12.173000
5 _002_ _002_:6 2.764100
6 _002_ _002_:7 6.632300
7 _002_ _348_:D 0.000000
8 _002_ _171_:ZN 0.000000
*END

*D_NET _003_ 1.782681
*CONN
*P _003_ B
*I _349_:D B
*I _183_:Z B
*CAP
1 _003_ 1.764169
2 _003_ _070_ 0.004628
3 _003_ clknet_0_clk 0.004628
4 _003_ clknet_3_6__leaf_clk 0.004628
5 _003_ txdp 0.004628
*RES
1 _003_ _003_:2 15.807700
2 _003_ _003_:3 26.706500
3 _003_ _003_:4 25.107900
4 _003_ _003_:5 17.376800
5 _003_ _349_:D 0.000000
6 _003_ _183_:Z 0.000000
*END

*D_NET _004_ 1.756000
*CONN
*P _004_ B
*I _342_:D B
*I _162_:ZN B
*CAP
1 _004_ 1.753521
2 _004_ _053_ 0.002479
*RES
1 _004_ _004_:2 11.207400
2 _004_ _004_:3 21.918100
3 _004_ _004_:4 14.184600
4 _004_ _004_:5 6.725700
5 _004_ _004_:6 2.175600
6 _004_ _004_:7 14.036500
7 _004_ _004_:8 14.344400
8 _004_ _342_:D 0.000000
9 _004_ _162_:ZN 0.000000
*END

*D_NET _005_ 3.349259
*CONN
*P _005_ B
*I _343_:D B
*I _158_:ZN B
*CAP
1 _005_ 3.259797
2 _005_ _053_ 0.004628
3 _005_ _056_ 0.003801
4 _005_ _057_ 0.003801
5 _005_ _077_ 0.004628
6 _005_ line_state[0] 0.004628
7 _005_ line_state[1] 0.004628
8 _005_ nrzi_level 0.004628
9 _005_ stuff_consume 0.030954
10 _005_ tx_state[1] 0.004628
11 _005_ tx_state[2] 0.009255
12 _005_ tx_state[4] 0.009255
13 _005_ tx_state[6] 0.004628
*RES
1 _005_ _005_:2 11.174200
2 _005_ _005_:3 22.740400
3 _005_ _005_:4 23.084000
4 _005_ _005_:5 9.240800
5 _005_ _005_:6 7.956500
6 _005_ _005_:7 8.485700
7 _005_ _005_:8 9.829900
8 _005_ _343_:D 0.000000
9 _005_ _158_:ZN 0.000000
*END

*D_NET _006_ 1.928378
*CONN
*P _006_ B
*I _344_:D B
*I _189_:ZN B
*CAP
1 _006_ 1.891355
2 _006_ _052_ 0.004628
3 _006_ _073_ 0.004628
4 _006_ clknet_3_5__leaf_clk 0.023139
5 _006_ tx_state[4] 0.004628
*RES
1 _006_ _006_:2 22.348000
2 _006_ _006_:3 18.205400
3 _006_ _006_:4 11.751400
4 _006_ _006_:5 8.197800
5 _006_ _006_:6 13.947800
6 _006_ _006_:7 11.165200
7 _006_ _344_:D 0.000000
8 _006_ _189_:ZN 0.000000
*END

*D_NET _007_ 2.440305
*CONN
*P _007_ B
*I _346_:D B
*I _169_:ZN B
*CAP
1 _007_ 2.404631
2 _007_ _063_ 0.004628
3 _007_ _064_ 0.004628
4 _007_ clknet_3_5__leaf_clk 0.021790
5 _007_ entering_sync 0.004628
*RES
1 _007_ _007_:2 20.242700
2 _007_ _007_:3 23.460600
3 _007_ _007_:4 8.752200
4 _007_ _007_:5 8.752700
5 _007_ _007_:6 13.246700
6 _007_ _007_:7 13.214400
7 _007_ _346_:D 0.000000
8 _007_ _169_:ZN 0.000000
*END

*D_NET _008_ 9.194251
*CONN
*P _008_ B
*I u_stuffer\/_20_:B B
*I u_stuffer\/_15_:A2 B
*I _203_:ZN B
*CAP
1 _008_ 9.071538
2 _008_ _012_ 0.000815
3 _008_ _055_ 0.008429
4 _008_ _056_ 0.004628
5 _008_ _063_ 0.004628
6 _008_ _079_ 0.004628
7 _008_ _083_ 0.004899
8 _008_ byte_idx[0] 0.010815
9 _008_ byte_idx[2] 0.004628
10 _008_ clknet_0_clk 0.004628
11 _008_ clknet_3_5__leaf_clk 0.004628
12 _008_ entering_sync 0.004628
13 _008_ raw_mode 0.004344
14 _008_ stuff_consume 0.004628
15 _008_ stuff_pending_after 0.003801
16 _008_ tx_body_active 0.009971
17 _008_ tx_state[0] 0.004628
18 _008_ tx_state[2] 0.004628
19 _008_ tx_state[4] 0.004628
20 _008_ u_stuffer\/_00_ 0.009255
21 _008_ u_stuffer\/_03_ 0.003801
22 _008_ u_stuffer\/_04_ 0.011047
23 _008_ u_stuffer\/_06_ 0.004628
*RES
1 _008_ _008_:2 23.067800
2 _008_ _008_:3 25.038700
3 _008_ _008_:4 29.643600
4 _008_ _008_:5 20.075600
5 _008_ _008_:6 19.294600
6 _008_ _008_:7 17.801500
7 _008_ _008_:8 22.050600
8 _008_ _008_:9 23.272700
9 _008_ _008_:10 23.924100
10 _008_ _008_:11 24.847600
11 _008_ _008_:12 26.485100
12 _008_ _008_:13 51.353200
13 _008_ _008_:14 29.487000
14 _008_ _008_:15 56.026500
15 _008_ _008_:16 55.614200
16 _008_ _008_:17 54.948200
17 _008_ _008_:18 55.254400
18 _008_ u_stuffer\/_20_:B 0.000000
19 _008_ u_stuffer\/_15_:A2 0.000000
20 _008_ _203_:ZN 0.000000
*END

*D_NET _009_ 3.639286
*CONN
*P _009_ B
*I u_encoder\/_3_:A1 B
*I _194_:ZN B
*CAP
1 _009_ 3.612694
2 _009_ _077_ 0.010064
3 _009_ line_state[0] 0.004628
4 _009_ nrzi_level 0.004628
5 _009_ u_encoder\/_1_ 0.007272
*RES
1 _009_ _009_:2 33.026300
2 _009_ _009_:3 40.357000
3 _009_ _009_:4 27.803200
4 _009_ _009_:5 25.990800
5 _009_ _009_:6 58.349500
6 _009_ _009_:7 41.187400
7 _009_ _009_:8 2.717800
8 _009_ _009_:9 9.749400
9 _009_ _009_:10 20.073400
10 _009_ _009_:11 30.513200
11 _009_ _009_:12 23.460200
12 _009_ _009_:13 31.832000
13 _009_ u_encoder\/_3_:A1 0.000000
14 _009_ _194_:ZN 0.000000
*END

*D_NET _010_ 6.110182
*CONN
*P _010_ B
*I u_sync_detector\/_21_:A1 B
*I u_sync_detector\/_16_:I B
*I _290_:A1 B
*I _148_:ZN B
*CAP
1 _010_ 6.052418
2 _010_ _053_ 0.009255
3 _010_ _138_ 0.008512
4 _010_ clknet_0_clk 0.004628
5 _010_ clknet_3_1__leaf_clk 0.004628
6 _010_ sync_next 0.018511
7 _010_ u_sync_detector\/_09_ 0.003801
8 _010_ u_sync_detector\/match[3] 0.008429
*RES
1 _010_ _010_:2 20.786500
2 _010_ _010_:3 26.880300
3 _010_ _010_:4 33.132500
4 _010_ _010_:5 39.467800
5 _010_ _010_:6 39.316600
6 _010_ _010_:7 9.427700
7 _010_ _010_:8 51.097800
8 _010_ _010_:9 20.772900
9 _010_ _010_:10 33.009500
10 _010_ _010_:11 26.799300
11 _010_ _010_:12 9.643100
12 _010_ _010_:13 58.608100
13 _010_ _010_:14 78.099300
14 _010_ _010_:15 85.017900
15 _010_ u_sync_detector\/_21_:A1 0.000000
16 _010_ u_sync_detector\/_16_:I 0.000000
17 _010_ _290_:A1 0.000000
18 _010_ _148_:ZN 0.000000
*END

*D_NET _011_ 3.084094
*CONN
*P _011_ B
*I u_encoder\/_5_:S B
*I _195_:ZN B
*CAP
1 _011_ 3.060820
2 _011_ _013_ 0.004628
3 _011_ _068_ 0.003801
4 _011_ clknet_0_clk 0.008594
5 _011_ raw_mode 0.006251
*RES
1 _011_ _011_:2 31.517200
2 _011_ _011_:3 30.239900
3 _011_ _011_:4 24.658600
4 _011_ _011_:5 19.729700
5 _011_ _011_:6 28.508100
6 _011_ _011_:7 37.244900
7 _011_ _011_:8 38.183200
8 _011_ u_encoder\/_5_:S 0.000000
9 _011_ _195_:ZN 0.000000
*END

*D_NET _012_ 9.365280
*CONN
*P _012_ B
*I u_stuffer\/_24_:A1 B
*I u_stuffer\/_22_:A2 B
*I u_stuffer\/_18_:A2 B
*I u_stuffer\/_17_:A1 B
*I _201_:ZN B
*CAP
1 _012_ 9.193576
2 _012_ _053_ 0.009255
3 _012_ _055_ 0.004628
4 _012_ _056_ 0.009255
5 _012_ _063_ 0.004628
6 _012_ _079_ 0.004628
7 _012_ byte_idx[0] 0.004628
8 _012_ byte_idx[2] 0.010330
9 _012_ clknet_0_clk 0.009255
10 _012_ clknet_3_5__leaf_clk 0.004628
11 _012_ entering_sync 0.004628
12 _012_ raw_mode 0.004628
13 _012_ stuff_consume 0.036195
14 _012_ stuff_pending_after 0.004628
15 _012_ tx_body_active 0.000826
16 _012_ tx_state[0] 0.004628
17 _012_ tx_state[2] 0.004628
18 _012_ tx_state[4] 0.004628
19 _012_ tx_state[6] 0.004628
20 _012_ u_stuffer\/_04_ 0.012230
21 _012_ u_stuffer\/_05_ 0.008163
22 _012_ u_stuffer\/_08_ 0.003801
23 _012_ u_stuffer\/_09_ 0.003801
24 _012_ u_stuffer\/_12_ 0.004628
25 _012_ u_stuffer\/run[2] 0.008429
*RES
1 _012_ _012_:2 38.952500
2 _012_ _012_:3 22.312200
3 _012_ _012_:4 8.530100
4 _012_ _012_:5 7.790900
5 _012_ _012_:6 26.580100
6 _012_ _012_:7 11.963900
7 _012_ _012_:8 43.239000
8 _012_ _012_:9 43.463900
9 _012_ _012_:10 38.676600
10 _012_ _012_:11 7.566500
11 _012_ _012_:12 59.510100
12 _012_ _012_:13 59.500900
13 _012_ _012_:14 54.886200
14 _012_ _012_:15 55.095400
15 _012_ u_stuffer\/_24_:A1 0.000000
16 _012_ u_stuffer\/_22_:A2 0.000000
17 _012_ u_stuffer\/_18_:A2 0.000000
18 _012_ u_stuffer\/_17_:A1 0.000000
19 _012_ _201_:ZN 0.000000
*END

*D_NET _013_ 2.454713
*CONN
*P _013_ B
*I u_encoder\/_4_:A1 B
*I _191_:Z B
*CAP
1 _013_ 2.426450
2 _013_ _068_ 0.004628
3 _013_ clknet_0_clk 0.004628
4 _013_ nrzi_level 0.004628
5 _013_ raw_mode 0.013883
6 _013_ u_encoder\/_1_ 0.000496
*RES
1 _013_ _013_:2 30.749100
2 _013_ _013_:3 30.660400
3 _013_ _013_:4 44.144400
4 _013_ _013_:5 44.317000
5 _013_ _013_:6 16.214300
6 _013_ _013_:7 16.839800
7 _013_ u_encoder\/_4_:A1 0.000000
8 _013_ _191_:Z 0.000000
*END

*D_NET _014_ 1.238573
*CONN
*P _014_ B
*I _334_:D B
*I _210_:ZN B
*CAP
1 _014_ 1.234772
2 _014_ _085_ 0.003801
*RES
1 _014_ _014_:2 13.449400
2 _014_ _014_:3 24.674300
3 _014_ _014_:4 2.887500
4 _014_ _014_:5 5.228700
5 _014_ _014_:6 18.908900
6 _014_ _014_:7 17.153000
7 _014_ _334_:D 0.000000
8 _014_ _210_:ZN 0.000000
*END

*D_NET _015_ 1.399832
*CONN
*P _015_ B
*I _311_:D B
*I _216_:ZN B
*CAP
1 _015_ 1.399832
*RES
1 _015_ _015_:2 12.911300
2 _015_ _015_:3 22.349400
3 _015_ _015_:4 6.674600
4 _015_ _015_:5 5.848400
5 _015_ _015_:6 1.011200
6 _015_ _015_:7 15.990900
7 _015_ _015_:8 18.306900
8 _015_ _311_:D 0.000000
9 _015_ _216_:ZN 0.000000
*END

*D_NET _016_ 1.202363
*CONN
*P _016_ B
*I _328_:D B
*I _220_:Z B
*CAP
1 _016_ 1.202363
*RES
1 _016_ _016_:2 13.507200
2 _016_ _016_:3 25.069900
3 _016_ _016_:4 17.658200
4 _016_ _016_:5 5.424100
5 _016_ _016_:6 1.791100
6 _016_ _016_:7 18.404700
7 _016_ _328_:D 0.000000
8 _016_ _220_:Z 0.000000
*END

*D_NET _017_ 3.543375
*CONN
*P _017_ B
*I _329_:D B
*I _289_:A2 B
*I _221_:ZN B
*CAP
1 _017_ 3.464703
2 _017_ _050_ 0.004628
3 _017_ _084_ 0.004628
4 _017_ clknet_0_clk 0.046277
5 _017_ rx_assembly_en 0.013883
6 _017_ rx_out_bit 0.004628
7 _017_ rx_stuff_err 0.004628
*RES
1 _017_ _017_:2 47.279300
2 _017_ _017_:3 41.343300
3 _017_ _017_:4 21.255500
4 _017_ _017_:5 24.725000
5 _017_ _017_:6 24.516900
6 _017_ _017_:7 30.241200
7 _017_ _329_:D 0.000000
8 _017_ _289_:A2 0.000000
9 _017_ _221_:ZN 0.000000
*END

*D_NET _018_ 1.920611
*CONN
*P _018_ B
*I _310_:D B
*I _224_:ZN B
*CAP
1 _018_ 1.911084
2 _018_ _098_ 0.009527
*RES
1 _018_ _018_:2 23.376700
2 _018_ _018_:3 17.654300
3 _018_ _018_:4 6.302400
4 _018_ _018_:5 5.908000
5 _018_ _018_:6 4.747900
6 _018_ _018_:7 13.311000
7 _018_ _018_:8 14.150200
8 _018_ _310_:D 0.000000
9 _018_ _224_:ZN 0.000000
*END

*D_NET _019_ 1.407360
*CONN
*P _019_ B
*I _309_:D B
*I _227_:ZN B
*CAP
1 _019_ 1.394670
2 _019_ _100_ 0.008889
3 _019_ clknet_3_6__leaf_clk 0.003801
*RES
1 _019_ _019_:2 13.735700
2 _019_ _019_:3 22.527000
3 _019_ _019_:4 5.725600
4 _019_ _019_:5 6.494100
5 _019_ _019_:6 0.367000
6 _019_ _019_:7 15.895400
7 _019_ _019_:8 18.347800
8 _019_ _309_:D 0.000000
9 _019_ _227_:ZN 0.000000
*END

*D_NET _020_ 2.004968
*CONN
*P _020_ B
*I _308_:D B
*I _230_:ZN B
*CAP
1 _020_ 1.989506
2 _020_ _052_ 0.005101
3 _020_ _092_ 0.004628
4 _020_ _102_ 0.005733
*RES
1 _020_ _020_:2 17.721700
2 _020_ _020_:3 23.053800
3 _020_ _020_:4 11.826400
4 _020_ _020_:5 11.165700
5 _020_ _020_:6 11.296100
6 _020_ _020_:7 4.332500
7 _020_ _020_:8 6.414400
8 _020_ _308_:D 0.000000
9 _020_ _230_:ZN 0.000000
*END

*D_NET _021_ 1.402173
*CONN
*P _021_ B
*I _336_:D B
*I _233_:ZN B
*CAP
1 _021_ 1.390590
2 _021_ _084_ 0.002327
3 _021_ _089_ 0.004628
4 _021_ _096_ 0.004628
*RES
1 _021_ _021_:2 24.913000
2 _021_ _021_:3 13.913200
3 _021_ _021_:4 6.342400
4 _021_ _021_:5 2.327900
5 _021_ _021_:6 17.661100
6 _021_ _021_:7 17.830700
7 _021_ _336_:D 0.000000
8 _021_ _233_:ZN 0.000000
*END

*D_NET _022_ 2.000353
*CONN
*P _022_ B
*I _307_:D B
*I _236_:ZN B
*CAP
1 _022_ 1.990955
2 _022_ _052_ 0.005101
3 _022_ _105_ 0.004297
*RES
1 _022_ _022_:2 17.784100
2 _022_ _022_:3 22.865600
3 _022_ _022_:4 11.288100
4 _022_ _022_:5 11.126500
5 _022_ _022_:6 10.990400
6 _022_ _022_:7 4.783100
7 _022_ _022_:8 6.972700
8 _022_ _307_:D 0.000000
9 _022_ _236_:ZN 0.000000
*END

*D_NET _023_ 1.771072
*CONN
*P _023_ B
*I _306_:D B
*I _239_:ZN B
*CAP
1 _023_ 1.756714
2 _023_ _052_ 0.000474
3 _023_ _092_ 0.004628
4 _023_ _108_ 0.004628
5 _023_ clknet_0_clk 0.004628
*RES
1 _023_ _023_:2 21.367300
2 _023_ _023_:3 14.564200
3 _023_ _023_:4 11.715300
4 _023_ _023_:5 11.724600
5 _023_ _023_:6 11.067900
6 _023_ _023_:7 5.142700
7 _023_ _023_:8 9.148300
8 _023_ _306_:D 0.000000
9 _023_ _239_:ZN 0.000000
*END

*D_NET _024_ 2.110180
*CONN
*P _024_ B
*I _305_:D B
*I _242_:ZN B
*CAP
1 _024_ 2.063429
2 _024_ _052_ 0.005101
3 _024_ _092_ 0.004628
4 _024_ _101_ 0.027766
5 _024_ _110_ 0.004628
6 _024_ clknet_3_7__leaf_clk 0.004628
*RES
1 _024_ _024_:2 17.805600
2 _024_ _024_:3 23.253800
3 _024_ _024_:4 12.143100
4 _024_ _024_:5 11.222600
5 _024_ _024_:6 11.494000
6 _024_ _024_:7 4.141400
7 _024_ _024_:8 6.142900
8 _024_ _305_:D 0.000000
9 _024_ _242_:ZN 0.000000
*END

*D_NET _025_ 1.842311
*CONN
*P _025_ B
*I _333_:D B
*I _245_:ZN B
*CAP
1 _025_ 1.816960
2 _025_ _084_ 0.004628
3 _025_ _086_ 0.004628
4 _025_ _111_ 0.011467
5 _025_ rx_shift[4] 0.004628
*RES
1 _025_ _025_:2 23.635300
2 _025_ _025_:3 17.922500
3 _025_ _025_:4 6.266700
4 _025_ _025_:5 8.957200
5 _025_ _025_:6 13.974800
6 _025_ _025_:7 14.212400
7 _025_ _333_:D 0.000000
8 _025_ _245_:ZN 0.000000
*END

*D_NET _026_ 1.877474
*CONN
*P _026_ B
*I _332_:D B
*I _248_:ZN B
*CAP
1 _026_ 1.852682
2 _026_ _086_ 0.004628
3 _026_ _113_ 0.006280
4 _026_ _114_ 0.004628
5 _026_ clknet_3_2__leaf_clk 0.004628
6 _026_ rx_shift[3] 0.004628
*RES
1 _026_ _026_:2 23.694500
2 _026_ _026_:3 17.967400
3 _026_ _026_:4 14.009800
4 _026_ _026_:5 14.248000
5 _026_ _026_:6 6.282400
6 _026_ _026_:7 8.979700
7 _026_ _332_:D 0.000000
8 _026_ _248_:ZN 0.000000
*END

*D_NET _027_ 1.441085
*CONN
*P _027_ B
*I _331_:D B
*I _251_:ZN B
*CAP
1 _027_ 1.428606
2 _027_ _115_ 0.007851
3 _027_ _116_ 0.004628
*RES
1 _027_ _027_:2 15.653700
2 _027_ _027_:3 22.455500
3 _027_ _027_:4 5.552700
4 _027_ _027_:5 11.539900
5 _027_ _027_:6 13.435000
6 _027_ _027_:7 14.564900
7 _027_ _331_:D 0.000000
8 _027_ _251_:ZN 0.000000
*END

*D_NET _028_ 1.575251
*CONN
*P _028_ B
*I _330_:D B
*I _254_:ZN B
*CAP
1 _028_ 1.558144
2 _028_ _086_ 0.004628
3 _028_ _117_ 0.007851
4 _028_ _118_ 0.004628
*RES
1 _028_ _028_:2 16.735300
2 _028_ _028_:3 22.216100
3 _028_ _028_:4 6.590100
4 _028_ _028_:5 12.036800
5 _028_ _028_:6 12.449900
6 _028_ _028_:7 13.938700
7 _028_ _330_:D 0.000000
8 _028_ _254_:ZN 0.000000
*END

*D_NET _029_ 1.095081
*CONN
*P _029_ B
*I _315_:D B
*I _259_:Z B
*CAP
1 _029_ 1.085826
2 _029_ clknet_3_5__leaf_clk 0.009255
*RES
1 _029_ _029_:2 32.177600
2 _029_ _029_:3 8.505500
3 _029_ _029_:4 11.850700
4 _029_ _029_:5 28.826500
5 _029_ _315_:D 0.000000
6 _029_ _259_:Z 0.000000
*END

*D_NET _030_ 1.784633
*CONN
*P _030_ B
*I _316_:D B
*I _261_:ZN B
*CAP
1 _030_ 1.751765
2 _030_ _052_ 0.005101
3 _030_ _063_ 0.013883
4 _030_ _120_ 0.004628
5 _030_ _123_ 0.004628
6 _030_ sync_idx[1] 0.004628
*RES
1 _030_ _030_:2 21.508900
2 _030_ _030_:3 14.176500
3 _030_ _030_:4 12.335900
4 _030_ _030_:5 11.816000
5 _030_ _030_:6 11.424000
6 _030_ _030_:7 4.665700
7 _030_ _030_:8 8.803400
8 _030_ _316_:D 0.000000
9 _030_ _261_:ZN 0.000000
*END

*D_NET _031_ 1.369580
*CONN
*P _031_ B
*I _337_:D B
*I _264_:Z B
*CAP
1 _031_ 1.363878
2 _031_ _125_ 0.005702
*RES
1 _031_ _031_:2 11.206500
2 _031_ _031_:3 30.281600
3 _031_ _031_:4 27.492800
4 _031_ _031_:5 13.674800
5 _031_ _337_:D 0.000000
6 _031_ _264_:Z 0.000000
*END

*D_NET _032_ 1.406224
*CONN
*P _032_ B
*I _314_:D B
*I _266_:ZN B
*CAP
1 _032_ 1.393226
2 _032_ _120_ 0.008099
3 _032_ _126_ 0.004899
*RES
1 _032_ _032_:2 12.911300
2 _032_ _032_:3 22.349400
3 _032_ _032_:4 6.674600
4 _032_ _032_:5 5.848400
5 _032_ _032_:6 1.011200
6 _032_ _032_:7 15.990900
7 _032_ _032_:8 18.306900
8 _032_ _314_:D 0.000000
9 _032_ _266_:ZN 0.000000
*END

*D_NET _033_ 1.761478
*CONN
*P _033_ B
*I _338_:D B
*I _268_:ZN B
*CAP
1 _033_ 1.761013
2 _033_ _089_ 0.000465
*RES
1 _033_ _033_:2 9.967000
2 _033_ _033_:3 24.231600
3 _033_ _033_:4 16.563300
4 _033_ _033_:5 18.038900
5 _033_ _033_:6 15.830900
6 _033_ _338_:D 0.000000
7 _033_ _268_:ZN 0.000000
*END

*D_NET _034_ 1.219711
*CONN
*P _034_ B
*I _327_:D B
*I _269_:Z B
*CAP
1 _034_ 1.190374
2 _034_ rx_shift[6] 0.018511
3 _034_ rx_shift[7] 0.010826
*RES
1 _034_ _034_:2 13.507200
2 _034_ _034_:3 25.069900
3 _034_ _034_:4 17.658200
4 _034_ _034_:5 5.424100
5 _034_ _034_:6 1.791100
6 _034_ _034_:7 18.404700
7 _034_ _327_:D 0.000000
8 _034_ _269_:Z 0.000000
*END

*D_NET _035_ 1.202363
*CONN
*P _035_ B
*I _326_:D B
*I _270_:Z B
*CAP
1 _035_ 1.202363
*RES
1 _035_ _035_:2 13.507200
2 _035_ _035_:3 25.069900
3 _035_ _035_:4 17.658200
4 _035_ _035_:5 5.424100
5 _035_ _035_:6 1.791100
6 _035_ _035_:7 18.404700
7 _035_ _326_:D 0.000000
8 _035_ _270_:Z 0.000000
*END

*D_NET _036_ 1.477303
*CONN
*P _036_ B
*I _340_:D B
*I _272_:ZN B
*CAP
1 _036_ 1.472675
2 _036_ clknet_3_2__leaf_clk 0.004628
*RES
1 _036_ _036_:2 25.152300
2 _036_ _036_:3 14.837000
3 _036_ _036_:4 17.459300
4 _036_ _036_:5 18.794400
5 _036_ _036_:6 3.562400
6 _036_ _036_:7 3.576300
7 _036_ _340_:D 0.000000
8 _036_ _272_:ZN 0.000000
*END

*D_NET _037_ 1.158093
*CONN
*P _037_ B
*I _325_:D B
*I _273_:Z B
*CAP
1 _037_ 1.158093
*RES
1 _037_ _037_:2 13.108200
2 _037_ _037_:3 25.057700
3 _037_ _037_:4 18.179400
4 _037_ _037_:5 3.347800
5 _037_ _037_:6 3.800400
6 _037_ _037_:7 18.147500
7 _037_ _325_:D 0.000000
8 _037_ _273_:Z 0.000000
*END

*D_NET _038_ 1.410065
*CONN
*P _038_ B
*I _312_:D B
*I _276_:ZN B
*CAP
1 _038_ 1.392109
2 _038_ _129_ 0.003801
3 _038_ _130_ 0.009527
4 _038_ clknet_3_7__leaf_clk 0.004628
*RES
1 _038_ _038_:2 12.911300
2 _038_ _038_:3 22.349400
3 _038_ _038_:4 6.674600
4 _038_ _038_:5 5.848400
5 _038_ _038_:6 1.011200
6 _038_ _038_:7 15.990900
7 _038_ _038_:8 18.306900
8 _038_ _312_:D 0.000000
9 _038_ _276_:ZN 0.000000
*END

*D_NET _039_ 1.200295
*CONN
*P _039_ B
*I _324_:D B
*I _277_:Z B
*CAP
1 _039_ 1.194924
2 _039_ rx_shift[4] 0.005371
*RES
1 _039_ _039_:2 13.507200
2 _039_ _039_:3 25.069900
3 _039_ _039_:4 17.658200
4 _039_ _039_:5 5.424100
5 _039_ _039_:6 1.791100
6 _039_ _039_:7 18.404700
7 _039_ _324_:D 0.000000
8 _039_ _277_:Z 0.000000
*END

*D_NET _040_ 1.886644
*CONN
*P _040_ B
*I _319_:D B
*I _285_:ZN B
*CAP
1 _040_ 1.875241
2 _040_ _052_ 0.003801
3 _040_ _131_ 0.003801
4 _040_ _135_ 0.003801
*RES
1 _040_ _040_:2 6.569500
2 _040_ _040_:3 11.512100
3 _040_ _040_:4 3.178800
4 _040_ _040_:5 5.910100
5 _040_ _040_:6 2.593000
6 _040_ _040_:7 6.915100
7 _040_ _040_:8 6.248700
8 _040_ _040_:9 8.331900
9 _040_ _040_:10 10.190800
10 _040_ _040_:11 7.911200
11 _040_ _040_:12 10.664000
12 _040_ _040_:13 5.188600
13 _040_ _319_:D 0.000000
14 _040_ _285_:ZN 0.000000
*END

*D_NET _042_ 1.158093
*CONN
*P _042_ B
*I _323_:D B
*I _286_:Z B
*CAP
1 _042_ 1.158093
*RES
1 _042_ _042_:2 13.108200
2 _042_ _042_:3 25.057700
3 _042_ _042_:4 18.179400
4 _042_ _042_:5 3.347800
5 _042_ _042_:6 3.800400
6 _042_ _042_:7 18.147500
7 _042_ _323_:D 0.000000
8 _042_ _286_:Z 0.000000
*END

*D_NET _043_ 1.309691
*CONN
*P _043_ B
*I _322_:D B
*I _287_:Z B
*CAP
1 _043_ 1.305063
2 _043_ clknet_3_2__leaf_clk 0.004628
*RES
1 _043_ _043_:2 25.045600
2 _043_ _043_:3 14.457500
3 _043_ _043_:4 2.312100
4 _043_ _043_:5 17.923700
5 _043_ _043_:6 17.292000
6 _043_ _043_:7 5.309500
7 _043_ _322_:D 0.000000
8 _043_ _287_:Z 0.000000
*END

*D_NET _044_ 1.652127
*CONN
*P _044_ B
*I _321_:D B
*I _288_:Z B
*CAP
1 _044_ 1.638243
2 _044_ _086_ 0.004628
3 _044_ _118_ 0.004628
4 _044_ rx_shift[2] 0.004628
*RES
1 _044_ _044_:2 18.241100
2 _044_ _044_:3 22.168100
3 _044_ _044_:4 14.719700
4 _044_ _044_:5 6.249400
5 _044_ _044_:6 10.275000
6 _044_ _044_:7 12.402200
7 _044_ _321_:D 0.000000
8 _044_ _288_:Z 0.000000
*END

*D_NET _045_ 2.418223
*CONN
*P _045_ B
*I _313_:D B
*I _289_:Z B
*CAP
1 _045_ 2.385828
2 _045_ _096_ 0.023139
3 _045_ clknet_0_clk 0.004628
4 _045_ clknet_3_3__leaf_clk 0.004628
*RES
1 _045_ _045_:2 18.619100
2 _045_ _045_:3 25.197800
3 _045_ _045_:4 24.238000
4 _045_ _045_:5 19.529500
5 _045_ _313_:D 0.000000
6 _045_ _289_:Z 0.000000
*END

*D_NET _046_ 1.297061
*CONN
*P _046_ B
*I _341_:D B
*I _292_:ZN B
*CAP
1 _046_ 1.291607
2 _046_ _139_ 0.005454
*RES
1 _046_ _046_:2 12.596800
2 _046_ _046_:3 13.961800
3 _046_ _046_:4 27.000400
4 _046_ _046_:5 28.737700
5 _046_ _341_:D 0.000000
6 _046_ _292_:ZN 0.000000
*END

*D_NET _047_ 1.486828
*CONN
*P _047_ B
*I _318_:D B
*I _296_:ZN B
*CAP
1 _047_ 1.483027
2 _047_ clknet_3_7__leaf_clk 0.003801
*RES
1 _047_ _047_:2 11.745400
2 _047_ _047_:3 22.112200
3 _047_ _047_:4 8.557200
4 _047_ _047_:5 4.405800
5 _047_ _047_:6 2.684100
6 _047_ _047_:7 16.025100
7 _047_ _047_:8 17.973700
8 _047_ _318_:D 0.000000
9 _047_ _296_:ZN 0.000000
*END

*D_NET _048_ 1.768106
*CONN
*P _048_ B
*I _317_:D B
*I _299_:ZN B
*CAP
1 _048_ 1.754906
2 _048_ _052_ 0.004275
3 _048_ _132_ 0.004297
4 _048_ tx_state[2] 0.004628
*RES
1 _048_ _048_:2 21.367300
2 _048_ _048_:3 14.564200
3 _048_ _048_:4 11.715300
4 _048_ _048_:5 11.724600
5 _048_ _048_:6 11.067900
6 _048_ _048_:7 5.142700
7 _048_ _048_:8 9.148300
8 _048_ _317_:D 0.000000
9 _048_ _299_:ZN 0.000000
*END

*D_NET _049_ 2.364869
*CONN
*P _049_ B
*I _339_:D B
*I _301_:ZN B
*CAP
1 _049_ 2.333301
2 _049_ _086_ 0.023139
3 _049_ _095_ 0.003801
4 _049_ _145_ 0.004628
*RES
1 _049_ _049_:2 23.887100
2 _049_ _049_:3 19.418000
3 _049_ _049_:4 17.324400
4 _049_ _049_:5 11.031100
5 _049_ _049_:6 6.987100
6 _049_ _049_:7 8.689400
7 _049_ _339_:D 0.000000
8 _049_ _301_:ZN 0.000000
*END

*D_NET _050_ 3.475341
*CONN
*P _050_ B
*I _335_:D B
*I _304_:ZN B
*CAP
1 _050_ 3.427409
2 _050_ _086_ 0.010908
3 _050_ _089_ 0.004628
4 _050_ _096_ 0.004628
5 _050_ _104_ 0.004628
6 _050_ _146_ 0.004628
7 _050_ clknet_0_clk 0.004628
8 _050_ clknet_3_3__leaf_clk 0.004628
9 _050_ rx_assembly_en 0.004628
10 _050_ rx_shift[7] 0.004628
*RES
1 _050_ _050_:2 21.968400
2 _050_ _050_:3 24.199500
3 _050_ _050_:4 13.165400
4 _050_ _050_:5 12.795600
5 _050_ _050_:6 10.348000
6 _050_ _050_:7 10.061300
7 _050_ _335_:D 0.000000
8 _050_ _304_:ZN 0.000000
*END

*D_NET _051_ 2.270164
*CONN
*P _051_ B
*I _150_:A2 B
*I _149_:ZN B
*CAP
1 _051_ 2.249322
2 _051_ rxdm 0.008429
3 _051_ txdm 0.003984
4 _051_ u_line_state\/_2_ 0.008429
*RES
1 _051_ _051_:2 33.560000
2 _051_ _051_:3 38.140800
3 _051_ _051_:4 17.412100
4 _051_ _051_:5 38.005100
5 _051_ _051_:6 34.901400
6 _051_ _051_:7 18.179200
7 _051_ _150_:A2 0.000000
8 _051_ _149_:ZN 0.000000
*END

*D_NET _052_ 30.342191
*CONN
*P _052_ B
*I _169_:B B
*I _189_:B B
*I _216_:C B
*I _224_:C B
*I _227_:C B
*I _230_:C B
*I _239_:C B
*I _242_:C B
*I _276_:C B
*I _285_:C B
*I _299_:C B
*I _296_:C B
*I _266_:C B
*I _261_:C B
*I _258_:C B
*I _236_:C B
*I _151_:I B
*I _150_:ZN B
*CAP
1 _052_ 29.912783
2 _052_ _053_ 0.004628
3 _052_ _062_ 0.004628
4 _052_ _063_ 0.004628
5 _052_ _090_ 0.004628
6 _052_ _092_ 0.055863
7 _052_ _094_ 0.009255
8 _052_ _097_ 0.004628
9 _052_ _100_ 0.004628
10 _052_ _101_ 0.009255
11 _052_ _106_ 0.005101
12 _052_ _107_ 0.009255
13 _052_ _109_ 0.004628
14 _052_ _110_ 0.004628
15 _052_ _119_ 0.009255
16 _052_ _120_ 0.027766
17 _052_ _122_ 0.004628
18 _052_ _123_ 0.004628
19 _052_ _126_ 0.000089
20 _052_ _130_ 0.009255
21 _052_ _132_ 0.004628
22 _052_ _134_ 0.013883
23 _052_ _135_ 0.004628
24 _052_ _136_ 0.000627
25 _052_ _137_ 0.003801
26 _052_ _141_ 0.004628
27 _052_ _142_ 0.000939
28 _052_ _144_ 0.005733
29 _052_ byte_idx[0] 0.004628
30 _052_ byte_idx[1] 0.004628
31 _052_ byte_idx[2] 0.023139
32 _052_ byte_reg[0] 0.017519
33 _052_ byte_reg[2] 0.004628
34 _052_ byte_reg[3] 0.004628
35 _052_ byte_reg[4] 0.018511
36 _052_ clknet_0_clk 0.004628
37 _052_ clknet_3_5__leaf_clk 0.013883
38 _052_ clknet_3_6__leaf_clk 0.004628
39 _052_ clknet_3_7__leaf_clk 0.013883
40 _052_ entering_sync 0.013883
41 _052_ line_state[0] 0.013883
42 _052_ line_state[1] 0.013883
43 _052_ rst_n 0.005103
44 _052_ rxdm 0.003801
45 _052_ sync_idx[0] 0.000826
46 _052_ sync_idx[1] 0.018985
47 _052_ tx_state[2] 0.004628
48 _052_ tx_state[4] 0.004762
49 _052_ txdm 0.014710
*RES
1 _052_ _052_:2 58.990300
2 _052_ _052_:3 56.016100
3 _052_ _052_:4 37.342800
4 _052_ _052_:5 38.524200
5 _052_ _052_:6 33.979200
6 _052_ _052_:7 35.209200
7 _052_ _052_:8 33.410400
8 _052_ _052_:9 34.662500
9 _052_ _052_:10 28.306300
10 _052_ _052_:11 45.083600
11 _052_ _052_:12 39.315400
12 _052_ _052_:13 40.327900
13 _052_ _052_:14 63.473400
14 _052_ _052_:15 40.171700
15 _052_ _052_:16 33.124100
16 _052_ _052_:17 27.560200
17 _052_ _052_:18 42.942500
18 _052_ _052_:19 29.343400
19 _052_ _052_:20 51.602300
20 _052_ _052_:21 34.760900
21 _052_ _052_:22 61.303000
22 _052_ _052_:23 47.787400
23 _052_ _052_:24 64.129600
24 _052_ _052_:25 50.143000
25 _052_ _052_:26 37.966600
26 _052_ _052_:27 60.578200
27 _052_ _052_:28 32.271700
28 _052_ _052_:29 25.133000
29 _052_ _052_:30 47.366700
30 _052_ _052_:31 36.136300
31 _052_ _052_:32 39.939400
32 _052_ _052_:33 30.432400
33 _052_ _052_:34 45.104700
34 _052_ _052_:35 27.015100
35 _052_ _052_:36 54.078500
36 _052_ _052_:37 29.294600
37 _052_ _052_:38 39.455500
38 _052_ _052_:39 38.280100
39 _052_ _052_:40 48.508100
40 _052_ _052_:41 49.383900
41 _052_ _052_:42 51.439300
42 _052_ _052_:43 50.516000
43 _052_ _052_:44 50.269500
44 _052_ _052_:45 47.642800
45 _052_ _169_:B 0.000000
46 _052_ _189_:B 0.000000
47 _052_ _216_:C 0.000000
48 _052_ _224_:C 0.000000
49 _052_ _227_:C 0.000000
50 _052_ _230_:C 0.000000
51 _052_ _239_:C 0.000000
52 _052_ _242_:C 0.000000
53 _052_ _276_:C 0.000000
54 _052_ _285_:C 0.000000
55 _052_ _299_:C 0.000000
56 _052_ _296_:C 0.000000
57 _052_ _266_:C 0.000000
58 _052_ _261_:C 0.000000
59 _052_ _258_:C 0.000000
60 _052_ _236_:C 0.000000
61 _052_ _151_:I 0.000000
62 _052_ _150_:ZN 0.000000
*END

*D_NET _053_ 72.801649
*CONN
*P _053_ B
*I _156_:A2 B
*I _157_:A2 B
*I _159_:A2 B
*I _162_:C B
*I _182_:A2 B
*I _183_:A2 B
*I _264_:A1 B
*I _271_:B B
*I _291_:B B
*I u_decoder\/_10_:SETN B
*I u_decoder\/_11_:RN B
*I u_decoder\/_12_:RN B
*I u_destuffer\/_32_:RN B
*I u_destuffer\/_33_:RN B
*I u_destuffer\/_34_:RN B
*I u_destuffer\/_35_:RN B
*I u_destuffer\/_36_:RN B
*I u_destuffer\/_37_:RN B
*I u_encoder\/_6_:SETN B
*I u_eop_detector\/_28_:A1 B
*I u_line_state\/_4_:A2 B
*I u_line_state\/_5_:A1 B
*I u_stuffer\/_31_:RN B
*I u_stuffer\/_32_:RN B
*I u_stuffer\/_33_:RN B
*I u_sync_detector\/_21_:A2 B
*I u_sync_detector\/_32_:A1 B
*I _218_:A3 B
*I _209_:A2 B
*I _151_:ZN B
*CAP
1 _053_ 72.142992
2 _053_ _058_ 0.006900
3 _053_ _059_ 0.004628
4 _053_ _070_ 0.004628
5 _053_ _080_ 0.004628
6 _053_ _081_ 0.004628
7 _053_ _082_ 0.004628
8 _053_ _084_ 0.004628
9 _053_ _089_ 0.004628
10 _053_ _095_ 0.031733
11 _053_ _099_ 0.004628
12 _053_ _107_ 0.004628
13 _053_ _128_ 0.013553
14 _053_ _139_ 0.009255
15 _053_ byte_reg[0] 0.004628
16 _053_ byte_reg[1] 0.004628
17 _053_ byte_reg[4] 0.004628
18 _053_ byte_reg[5] 0.004628
19 _053_ clk 0.004628
20 _053_ clknet_0_clk 0.033964
21 _053_ clknet_3_0__leaf_clk 0.008842
22 _053_ clknet_3_1__leaf_clk 0.004628
23 _053_ clknet_3_2__leaf_clk 0.009255
24 _053_ clknet_3_4__leaf_clk 0.013883
25 _053_ clknet_3_5__leaf_clk 0.018511
26 _053_ clknet_3_6__leaf_clk 0.020319
27 _053_ dec_data_bit 0.018511
28 _053_ dec_data_strobe 0.009999
29 _053_ line_state[0] 0.004628
30 _053_ line_state[1] 0.004628
31 _053_ rx_assembly_en 0.004628
32 _053_ rx_bit_valid 0.004628
33 _053_ rx_bitcnt[2] 0.021486
34 _053_ rx_out_bit 0.004628
35 _053_ rx_receiving 0.034073
36 _053_ rx_stuff_err 0.004628
37 _053_ stuff_consume 0.004628
38 _053_ stuff_pending_after 0.000384
39 _053_ sync_next 0.023320
40 _053_ tx_body_active 0.023139
41 _053_ tx_state[1] 0.013883
42 _053_ tx_state[2] 0.004628
43 _053_ tx_state[4] 0.004628
44 _053_ tx_state[5] 0.023139
45 _053_ tx_state[6] 0.064788
46 _053_ txdm 0.004628
47 _053_ txdp 0.007387
48 _053_ u_decoder\/_03_ 0.004628
49 _053_ u_decoder\/_04_ 0.008594
50 _053_ u_destuffer\/_03_ 0.004628
51 _053_ u_destuffer\/_06_ 0.004628
52 _053_ u_destuffer\/_08_ 0.009255
53 _053_ u_destuffer\/_09_ 0.004628
54 _053_ u_destuffer\/_10_ 0.007567
55 _053_ u_destuffer\/ones_run[0] 0.000487
56 _053_ u_destuffer\/ones_run[2] 0.006280
57 _053_ u_encoder\/_0_ 0.004628
58 _053_ u_eop_detector\/_08_ 0.004628
59 _053_ u_eop_detector\/_09_ 0.007130
60 _053_ u_line_state\/_0_ 0.004628
61 _053_ u_stuffer\/_04_ 0.009255
62 _053_ u_stuffer\/_10_ 0.004628
63 _053_ u_stuffer\/_11_ 0.009255
64 _053_ u_stuffer\/_12_ 0.010908
65 _053_ u_stuffer\/_13_ 0.004628
66 _053_ u_stuffer\/run[0] 0.004628
67 _053_ u_stuffer\/run[1] 0.004628
68 _053_ u_sync_detector\/_05_ 0.004628
69 _053_ u_sync_detector\/_09_ 0.007738
70 _053_ u_sync_detector\/match[3] 0.004628
*RES
1 _053_ _053_:2 122.384300
2 _053_ _053_:3 129.351400
3 _053_ _053_:4 119.004100
4 _053_ _053_:5 126.762500
5 _053_ _053_:6 64.280500
6 _053_ _053_:7 91.054600
7 _053_ _053_:8 87.588900
8 _053_ _053_:9 47.924800
9 _053_ _053_:10 54.690600
10 _053_ _053_:11 45.209700
11 _053_ _053_:12 74.357800
12 _053_ _053_:13 76.442300
13 _053_ _053_:14 119.473100
14 _053_ _053_:15 120.057500
15 _053_ _053_:16 115.235300
16 _053_ _053_:17 114.544900
17 _053_ _053_:18 87.267100
18 _053_ _053_:19 4.771200
19 _053_ _053_:20 6.754400
20 _053_ _053_:21 2.828400
21 _053_ _053_:22 87.775000
22 _053_ _053_:23 94.824600
23 _053_ _053_:24 46.563600
24 _053_ _053_:25 104.499800
25 _053_ _053_:26 35.973900
26 _053_ _053_:27 23.306200
27 _053_ _053_:28 74.818500
28 _053_ _053_:29 22.930000
29 _053_ _053_:30 27.387400
30 _053_ _053_:31 20.471300
31 _053_ _053_:32 43.192100
32 _053_ _053_:33 102.640200
33 _053_ _053_:34 38.437900
34 _053_ _053_:35 75.673800
35 _053_ _053_:36 72.185500
36 _053_ _053_:37 73.144700
37 _053_ _053_:38 64.834300
38 _053_ _053_:39 84.915100
39 _053_ _053_:40 67.468000
40 _053_ _053_:41 71.603700
41 _053_ _053_:42 38.488500
42 _053_ _053_:43 23.203800
43 _053_ _053_:44 140.632300
44 _053_ _053_:45 99.444500
45 _053_ _053_:46 31.040300
46 _053_ _053_:47 86.196500
47 _053_ _053_:48 45.916700
48 _053_ _053_:49 131.062800
49 _053_ _053_:50 46.942100
50 _053_ _053_:51 83.086500
51 _053_ _053_:52 52.557700
52 _053_ _053_:53 113.617600
53 _053_ _053_:54 110.391700
54 _053_ _053_:55 28.110400
55 _053_ _053_:56 7.725200
56 _053_ _053_:57 52.203000
57 _053_ _053_:58 64.569900
58 _053_ _053_:59 19.217400
59 _053_ _053_:60 142.277600
60 _053_ _053_:61 99.168800
61 _053_ _053_:62 42.540000
62 _053_ _053_:63 24.653400
63 _053_ _053_:64 114.144900
64 _053_ _053_:65 32.025300
65 _053_ _053_:66 48.508600
66 _053_ _053_:67 109.099200
67 _053_ _053_:68 54.365100
68 _053_ _053_:69 44.266600
69 _053_ _053_:70 133.713000
70 _053_ _053_:71 84.483200
71 _053_ _053_:72 80.416800
72 _053_ _053_:73 15.068100
73 _053_ _053_:74 45.718400
74 _053_ _053_:75 92.192600
75 _053_ _053_:76 89.663800
76 _053_ _053_:77 135.633400
77 _053_ _053_:78 10.676900
78 _053_ _053_:79 42.297400
79 _053_ _053_:80 69.722900
80 _053_ _053_:81 76.074200
81 _053_ _053_:82 68.490600
82 _053_ _053_:83 75.913500
83 _053_ _053_:84 87.196800
84 _053_ _053_:85 102.511200
85 _053_ _053_:86 85.889100
86 _053_ _053_:87 91.072500
87 _053_ _053_:88 89.278800
88 _053_ _053_:89 59.157200
89 _053_ _053_:90 91.053800
90 _053_ _053_:91 80.248100
91 _053_ _053_:92 132.726400
92 _053_ _053_:93 85.872500
93 _053_ _053_:94 89.992700
94 _053_ _053_:95 98.085200
95 _053_ _053_:96 59.857100
96 _053_ _053_:97 94.652700
97 _053_ _053_:98 78.925500
98 _053_ _053_:99 80.449800
99 _053_ _053_:100 82.356900
100 _053_ _053_:101 83.816500
101 _053_ _156_:A2 0.000000
102 _053_ _157_:A2 0.000000
103 _053_ _159_:A2 0.000000
104 _053_ _162_:C 0.000000
105 _053_ _182_:A2 0.000000
106 _053_ _183_:A2 0.000000
107 _053_ _264_:A1 0.000000
108 _053_ _271_:B 0.000000
109 _053_ _291_:B 0.000000
110 _053_ u_decoder\/_10_:SETN 0.000000
111 _053_ u_decoder\/_11_:RN 0.000000
112 _053_ u_decoder\/_12_:RN 0.000000
113 _053_ u_destuffer\/_32_:RN 0.000000
114 _053_ u_destuffer\/_33_:RN 0.000000
115 _053_ u_destuffer\/_34_:RN 0.000000
116 _053_ u_destuffer\/_35_:RN 0.000000
117 _053_ u_destuffer\/_36_:RN 0.000000
118 _053_ u_destuffer\/_37_:RN 0.000000
119 _053_ u_encoder\/_6_:SETN 0.000000
120 _053_ u_eop_detector\/_28_:A1 0.000000
121 _053_ u_line_state\/_4_:A2 0.000000
122 _053_ u_line_state\/_5_:A1 0.000000
123 _053_ u_stuffer\/_31_:RN 0.000000
124 _053_ u_stuffer\/_32_:RN 0.000000
125 _053_ u_stuffer\/_33_:RN 0.000000
126 _053_ u_sync_detector\/_21_:A2 0.000000
127 _053_ u_sync_detector\/_32_:A1 0.000000
128 _053_ _218_:A3 0.000000
129 _053_ _209_:A2 0.000000
130 _053_ _151_:ZN 0.000000
*END

*D_NET _055_ 8.914185
*CONN
*P _055_ B
*I _281_:A2 B
*I _185_:A2 B
*I _155_:A2 B
*I _154_:ZN B
*CAP
1 _055_ 8.805102
2 _055_ _056_ 0.004628
3 _055_ _059_ 0.004628
4 _055_ _061_ 0.004628
5 _055_ _072_ 0.004628
6 _055_ _134_ 0.003801
7 _055_ byte_idx[0] 0.016032
8 _055_ byte_idx[1] 0.007603
9 _055_ byte_idx[2] 0.003801
10 _055_ stuff_consume 0.013883
11 _055_ tx_state[0] 0.018511
12 _055_ tx_state[2] 0.013883
13 _055_ tx_state[4] 0.004628
14 _055_ tx_state[6] 0.008429
*RES
1 _055_ _055_:2 22.805800
2 _055_ _055_:3 27.698600
3 _055_ _055_:4 27.812400
4 _055_ _055_:5 23.597500
5 _055_ _055_:6 27.491200
6 _055_ _055_:7 25.990200
7 _055_ _055_:8 28.521700
8 _055_ _055_:9 25.241200
9 _055_ _055_:10 12.576400
10 _055_ _055_:11 11.150400
11 _055_ _055_:12 8.566300
12 _055_ _055_:13 6.687200
13 _055_ _055_:14 6.192200
14 _055_ _055_:15 12.366900
15 _055_ _055_:16 9.615300
16 _055_ _055_:17 7.365800
17 _055_ _055_:18 15.353000
18 _055_ _055_:19 9.801600
19 _055_ _055_:20 7.501000
20 _055_ _055_:21 6.224600
21 _055_ _055_:22 6.596500
22 _055_ _055_:23 13.839800
23 _055_ _055_:24 10.950400
24 _055_ _055_:25 8.400500
25 _055_ _055_:26 1.451800
26 _055_ _055_:27 7.638100
27 _055_ _055_:28 2.944000
28 _055_ _055_:29 9.453700
29 _055_ _281_:A2 0.000000
30 _055_ _185_:A2 0.000000
31 _055_ _155_:A2 0.000000
32 _055_ _154_:ZN 0.000000
*END

*D_NET _056_ 4.434348
*CONN
*P _056_ B
*I _297_:A3 B
*I _171_:A2 B
*I _158_:A2 B
*I _155_:Z B
*CAP
1 _056_ 4.381790
2 _056_ _057_ 0.004628
3 _056_ _061_ 0.004628
4 _056_ _063_ 0.004628
5 _056_ _064_ 0.009255
6 _056_ _133_ 0.004628
7 _056_ clknet_3_5__leaf_clk 0.000826
8 _056_ stuff_consume 0.004628
9 _056_ tx_state[2] 0.000826
10 _056_ tx_state[4] 0.004628
11 _056_ tx_state[6] 0.013883
*RES
1 _056_ _056_:2 12.053400
2 _056_ _056_:3 11.217400
3 _056_ _056_:4 60.710400
4 _056_ _056_:5 60.774300
5 _056_ _056_:6 33.840200
6 _056_ _056_:7 41.920500
7 _056_ _056_:8 27.632400
8 _056_ _056_:9 38.316800
9 _056_ _297_:A3 0.000000
10 _056_ _171_:A2 0.000000
11 _056_ _158_:A2 0.000000
12 _056_ _155_:Z 0.000000
*END

*D_NET _057_ 2.519844
*CONN
*P _057_ B
*I _171_:A3 B
*I _158_:A3 B
*I _156_:ZN B
*CAP
1 _057_ 2.479050
2 _057_ clknet_3_5__leaf_clk 0.008925
3 _057_ stuff_consume 0.011705
4 _057_ stuff_pending_after 0.001653
5 _057_ tx_state[2] 0.009255
6 _057_ tx_state[4] 0.004628
7 _057_ tx_state[6] 0.004628
*RES
1 _057_ _057_:2 27.887800
2 _057_ _057_:3 13.060200
3 _057_ _057_:4 47.655400
4 _057_ _057_:5 25.857900
5 _057_ _057_:6 47.810700
6 _057_ _057_:7 12.397600
7 _057_ _057_:8 7.428000
8 _057_ _171_:A3 0.000000
9 _057_ _158_:A3 0.000000
10 _057_ _156_:ZN 0.000000
*END

*D_NET _058_ 1.795281
*CONN
*P _058_ B
*I _158_:B B
*I _157_:ZN B
*CAP
1 _058_ 1.777420
2 _058_ tx_state[2] 0.009255
3 _058_ tx_state[4] 0.004628
4 _058_ tx_state[6] 0.003978
*RES
1 _058_ _058_:2 26.380200
2 _058_ _058_:3 15.973100
3 _058_ _058_:4 20.643900
4 _058_ _058_:5 11.110100
5 _058_ _058_:6 10.964100
6 _058_ _158_:B 0.000000
7 _058_ _157_:ZN 0.000000
*END

*D_NET _059_ 2.573075
*CONN
*P _059_ B
*I _185_:B B
*I _162_:A2 B
*I _160_:ZN B
*CAP
1 _059_ 2.559191
2 _059_ _060_ 0.004628
3 _059_ _072_ 0.004628
4 _059_ stuff_consume 0.004628
*RES
1 _059_ _059_:2 23.112000
2 _059_ _059_:3 38.601600
3 _059_ _059_:4 28.268500
4 _059_ _059_:5 8.066500
5 _059_ _059_:6 48.932000
6 _059_ _059_:7 34.750900
7 _059_ _185_:B 0.000000
8 _059_ _162_:A2 0.000000
9 _059_ _160_:ZN 0.000000
*END

*D_NET _060_ 1.458036
*CONN
*P _060_ B
*I _162_:B B
*I _161_:ZN B
*CAP
1 _060_ 1.458036
*RES
1 _060_ _060_:2 21.375000
2 _060_ _060_:3 21.522400
3 _060_ _060_:4 20.640900
4 _060_ _060_:5 21.057300
5 _060_ _162_:B 0.000000
6 _060_ _161_:ZN 0.000000
*END

*D_NET _061_ 10.404916
*CONN
*P _061_ B
*I _263_:A2 B
*I _213_:B2 B
*I _169_:A1 B
*I _164_:I B
*I _163_:ZN B
*CAP
1 _061_ 10.246324
2 _061_ _062_ 0.009694
3 _061_ _063_ 0.013883
4 _061_ _064_ 0.004628
5 _061_ _079_ 0.008429
6 _061_ _080_ 0.004628
7 _061_ _091_ 0.007603
8 _061_ _133_ 0.008503
9 _061_ _134_ 0.003801
10 _061_ byte_idx[0] 0.010139
11 _061_ byte_idx[1] 0.008429
12 _061_ byte_idx[2] 0.004628
13 _061_ clknet_3_5__leaf_clk 0.009255
14 _061_ clknet_3_7__leaf_clk 0.018511
15 _061_ entering_sync 0.004628
16 _061_ first_byte 0.004628
17 _061_ stuff_consume 0.004628
18 _061_ tx_state[0] 0.010265
19 _061_ tx_state[2] 0.017684
20 _061_ tx_state[4] 0.004628
*RES
1 _061_ _061_:2 21.826000
2 _061_ _061_:3 27.081400
3 _061_ _061_:4 23.465100
4 _061_ _061_:5 17.066800
5 _061_ _061_:6 17.884900
6 _061_ _061_:7 24.124900
7 _061_ _061_:8 49.718100
8 _061_ _061_:9 75.958800
9 _061_ _061_:10 85.593900
10 _061_ _061_:11 16.619700
11 _061_ _061_:12 55.619400
12 _061_ _061_:13 82.556900
13 _061_ _061_:14 92.198900
14 _061_ _061_:15 23.152600
15 _061_ _061_:16 8.351300
16 _061_ _061_:17 9.518800
17 _061_ _061_:18 5.713300
18 _061_ _061_:19 3.119700
19 _061_ _061_:20 11.102200
20 _061_ _061_:21 7.788900
21 _061_ _263_:A2 0.000000
22 _061_ _213_:B2 0.000000
23 _061_ _169_:A1 0.000000
24 _061_ _164_:I 0.000000
25 _061_ _163_:ZN 0.000000
*END

*D_NET _062_ 6.148031
*CONN
*P _062_ B
*I _281_:B2 B
*I _258_:A1 B
*I _167_:A1 B
*I _165_:ZN B
*CAP
1 _062_ 6.043909
2 _062_ _063_ 0.018511
3 _062_ _064_ 0.013883
4 _062_ _120_ 0.000826
5 _062_ _122_ 0.001766
6 _062_ _133_ 0.013330
7 _062_ _134_ 0.007603
8 _062_ _143_ 0.004628
9 _062_ clknet_3_5__leaf_clk 0.004628
10 _062_ stuff_consume 0.005727
11 _062_ sync_idx[1] 0.009255
12 _062_ tx_state[2] 0.009255
13 _062_ tx_state[4] 0.014710
*RES
1 _062_ _062_:2 61.616900
2 _062_ _062_:3 23.990200
3 _062_ _062_:4 30.347100
4 _062_ _062_:5 32.884900
5 _062_ _062_:6 22.584700
6 _062_ _062_:7 71.304700
7 _062_ _062_:8 48.540200
8 _062_ _062_:9 20.251900
9 _062_ _062_:10 35.534100
10 _062_ _062_:11 39.517400
11 _062_ _281_:B2 0.000000
12 _062_ _258_:A1 0.000000
13 _062_ _167_:A1 0.000000
14 _062_ _165_:ZN 0.000000
*END

*D_NET _063_ 11.089979
*CONN
*P _063_ B
*I _281_:B1 B
*I _191_:I0 B
*I _186_:A2 B
*I _167_:A2 B
*I _166_:Z B
*CAP
1 _063_ 10.925137
2 _063_ _064_ 0.004628
3 _063_ _066_ 0.009255
4 _063_ _075_ 0.004628
5 _063_ _119_ 0.013883
6 _063_ _120_ 0.004628
7 _063_ _122_ 0.000826
8 _063_ _133_ 0.009255
9 _063_ clknet_0_clk 0.018511
10 _063_ clknet_3_5__leaf_clk 0.011301
11 _063_ entering_sync 0.013883
12 _063_ stuff_bit_out 0.004628
13 _063_ stuff_consume 0.018511
14 _063_ stuff_pending_after 0.004628
15 _063_ sync_idx[0] 0.004628
16 _063_ tx_state[2] 0.027766
17 _063_ tx_state[4] 0.013883
*RES
1 _063_ _063_:2 60.807500
2 _063_ _063_:3 57.368300
3 _063_ _063_:4 12.420000
4 _063_ _063_:5 4.334800
5 _063_ _063_:6 31.515500
6 _063_ _063_:7 80.934800
7 _063_ _063_:8 83.354600
8 _063_ _063_:9 30.978800
9 _063_ _063_:10 38.543700
10 _063_ _063_:11 24.495900
11 _063_ _063_:12 25.136400
12 _063_ _063_:13 41.219500
13 _063_ _281_:B1 0.000000
14 _063_ _191_:I0 0.000000
15 _063_ _186_:A2 0.000000
16 _063_ _167_:A2 0.000000
17 _063_ _166_:Z 0.000000
*END

*D_NET _064_ 5.711364
*CONN
*P _064_ B
*I _297_:A4 B
*I _261_:A1 B
*I _169_:A2 B
*I _167_:Z B
*CAP
1 _064_ 5.641962
2 _064_ _119_ 0.004628
3 _064_ _120_ 0.004628
4 _064_ _122_ 0.012629
5 _064_ clknet_3_5__leaf_clk 0.012230
6 _064_ entering_sync 0.004628
7 _064_ stuff_consume 0.013553
8 _064_ tx_state[2] 0.007851
9 _064_ tx_state[4] 0.009255
*RES
1 _064_ _064_:2 8.708300
2 _064_ _064_:3 17.783600
3 _064_ _064_:4 53.736000
4 _064_ _064_:5 44.229400
5 _064_ _064_:6 38.044200
6 _064_ _064_:7 43.032900
7 _064_ _064_:8 39.585900
8 _064_ _064_:9 47.625800
9 _064_ _297_:A4 0.000000
10 _064_ _261_:A1 0.000000
11 _064_ _169_:A2 0.000000
12 _064_ _167_:Z 0.000000
*END

*D_NET _066_ 1.911679
*CONN
*P _066_ B
*I _171_:A1 B
*I _170_:ZN B
*CAP
1 _066_ 1.892342
2 _066_ clknet_3_5__leaf_clk 0.009255
3 _066_ stuff_pending_after 0.010082
*RES
1 _066_ _066_:2 26.313800
2 _066_ _066_:3 17.351500
3 _066_ _066_:4 27.378200
4 _066_ _066_:5 16.402400
5 _066_ _171_:A1 0.000000
6 _066_ _170_:ZN 0.000000
*END

*D_NET _067_ 1.839218
*CONN
*P _067_ B
*I _173_:A1 B
*I _172_:ZN B
*CAP
1 _067_ 1.820067
2 _067_ dec_bit_level 0.003801
3 _067_ line_state[0] 0.011549
4 _067_ line_state[1] 0.003801
*RES
1 _067_ _067_:2 16.267300
2 _067_ _067_:3 15.723400
3 _067_ _067_:4 26.829300
4 _067_ _067_:5 26.286300
5 _067_ _173_:A1 0.000000
6 _067_ _172_:ZN 0.000000
*END

*D_NET _068_ 4.729823
*CONN
*P _068_ B
*I _195_:A1 B
*I _194_:A3 B
*I _176_:I B
*I _175_:ZN B
*CAP
1 _068_ 4.656750
2 _068_ _076_ 0.018511
3 _068_ _077_ 0.018511
4 _068_ clknet_0_clk 0.004628
5 _068_ entering_sync 0.004628
6 _068_ raw_mode 0.009255
7 _068_ tx_state[2] 0.003801
8 _068_ tx_state[4] 0.004628
9 _068_ tx_state[6] 0.009111
*RES
1 _068_ _068_:2 57.106800
2 _068_ _068_:3 8.371500
3 _068_ _068_:4 41.219100
4 _068_ _068_:5 16.843100
5 _068_ _068_:6 46.970900
6 _068_ _068_:7 24.099900
7 _068_ _068_:8 30.537900
8 _068_ _068_:9 30.728200
9 _068_ _068_:10 28.867400
10 _068_ _195_:A1 0.000000
11 _068_ _194_:A3 0.000000
12 _068_ _176_:I 0.000000
13 _068_ _175_:ZN 0.000000
*END

*D_NET _069_ 3.390865
*CONN
*P _069_ B
*I _180_:A3 B
*I _179_:A3 B
*I _177_:ZN B
*CAP
1 _069_ 3.351694
2 _069_ _071_ 0.004628
3 _069_ line_state[0] 0.004628
4 _069_ line_state[1] 0.004628
5 _069_ nrzi_level 0.004628
6 _069_ tx_state[1] 0.004628
7 _069_ tx_state[4] 0.003801
8 _069_ tx_state[6] 0.003801
9 _069_ txdm 0.008429
*RES
1 _069_ _069_:2 20.192200
2 _069_ _069_:3 15.777000
3 _069_ _069_:4 18.345400
4 _069_ _069_:5 32.954800
5 _069_ _069_:6 25.814800
6 _069_ _069_:7 22.851900
7 _069_ _069_:8 20.213100
8 _069_ _069_:9 15.975700
9 _069_ _069_:10 17.876600
10 _069_ _180_:A3 0.000000
11 _069_ _179_:A3 0.000000
12 _069_ _177_:ZN 0.000000
*END

*D_NET _070_ 2.511669
*CONN
*P _070_ B
*I _181_:A2 B
*I _179_:A4 B
*I _178_:Z B
*CAP
1 _070_ 2.475662
2 _070_ _071_ 0.013883
3 _070_ clknet_0_clk 0.017496
4 _070_ clknet_3_6__leaf_clk 0.004628
*RES
1 _070_ _070_:2 32.692700
2 _070_ _070_:3 41.137300
3 _070_ _070_:4 33.030200
4 _070_ _070_:5 2.773100
5 _070_ _070_:6 49.467900
6 _070_ _070_:7 24.553300
7 _070_ _181_:A2 0.000000
8 _070_ _179_:A4 0.000000
9 _070_ _178_:Z 0.000000
*END

*D_NET _071_ 1.518997
*CONN
*P _071_ B
*I _181_:A1 B
*I _180_:ZN B
*CAP
1 _071_ 1.509411
2 _071_ nrzi_level 0.004132
3 _071_ tx_state[7] 0.005454
*RES
1 _071_ _071_:2 19.697600
2 _071_ _071_:3 15.992900
3 _071_ _071_:4 17.786100
4 _071_ _071_:5 14.629300
5 _071_ _071_:6 6.799500
6 _071_ _071_:7 8.957400
7 _071_ _181_:A1 0.000000
8 _071_ _180_:ZN 0.000000
*END

*D_NET _072_ 1.206749
*CONN
*P _072_ B
*I _185_:A1 B
*I _184_:ZN B
*CAP
1 _072_ 1.201295
2 _072_ stuff_consume 0.005454
*RES
1 _072_ _072_:2 31.808700
2 _072_ _072_:3 10.397300
3 _072_ _072_:4 9.120800
4 _072_ _072_:5 30.567900
5 _072_ _185_:A1 0.000000
6 _072_ _184_:ZN 0.000000
*END

*D_NET _073_ 1.453637
*CONN
*P _073_ B
*I _189_:A1 B
*I _186_:ZN B
*CAP
1 _073_ 1.447681
2 _073_ clknet_3_5__leaf_clk 0.001328
3 _073_ tx_state[4] 0.004628
*RES
1 _073_ _073_:2 25.855400
2 _073_ _073_:3 10.984000
3 _073_ _073_:4 29.636100
4 _073_ _073_:5 7.614200
5 _073_ _073_:6 8.572300
6 _073_ _189_:A1 0.000000
7 _073_ _186_:ZN 0.000000
*END

*D_NET _074_ 6.830296
*CONN
*P _074_ B
*I _213_:A2 B
*I _188_:A2 B
*I _187_:ZN B
*CAP
1 _074_ 6.721669
2 _074_ _092_ 0.003801
3 _074_ _134_ 0.004628
4 _074_ byte_idx[0] 0.024177
5 _074_ byte_idx[1] 0.040823
6 _074_ byte_idx[2] 0.011203
7 _074_ tx_state[0] 0.004628
8 _074_ tx_state[2] 0.019367
*RES
1 _074_ _074_:2 18.926900
2 _074_ _074_:3 11.823400
3 _074_ _074_:4 16.524400
4 _074_ _074_:5 18.492800
5 _074_ _074_:6 16.328700
6 _074_ _074_:7 7.193200
7 _074_ _074_:8 8.358300
8 _074_ _074_:9 17.115800
9 _074_ _074_:10 21.983700
10 _074_ _074_:11 27.541100
11 _074_ _074_:12 21.446300
12 _074_ _074_:13 23.346200
13 _074_ _074_:14 9.572800
14 _074_ _074_:15 18.002300
15 _074_ _074_:16 2.709600
16 _074_ _074_:17 4.240700
17 _074_ _074_:18 11.115900
18 _074_ _074_:19 16.458200
19 _074_ _074_:20 30.235000
20 _074_ _074_:21 13.014900
21 _074_ _074_:22 19.902000
22 _074_ _074_:23 26.790500
23 _074_ _074_:24 14.558700
24 _074_ _074_:25 6.133800
25 _074_ _074_:26 0.892000
26 _074_ _074_:27 7.675100
27 _074_ _074_:28 10.764200
28 _074_ _074_:29 17.954800
29 _074_ _074_:30 21.106700
30 _074_ _074_:31 11.607800
31 _074_ _213_:A2 0.000000
32 _074_ _188_:A2 0.000000
33 _074_ _187_:ZN 0.000000
*END

*D_NET _075_ 2.269173
*CONN
*P _075_ B
*I _189_:A2 B
*I _188_:ZN B
*CAP
1 _075_ 2.246861
2 _075_ _143_ 0.004628
3 _075_ tx_state[0] 0.003801
4 _075_ tx_state[2] 0.004628
5 _075_ tx_state[4] 0.009255
*RES
1 _075_ _075_:2 18.896000
2 _075_ _075_:3 24.434300
3 _075_ _075_:4 8.175600
4 _075_ _075_:5 7.512500
5 _075_ _075_:6 14.273800
6 _075_ _075_:7 13.648000
7 _075_ _189_:A2 0.000000
8 _075_ _188_:ZN 0.000000
*END

*D_NET _076_ 3.450492
*CONN
*P _076_ B
*I _195_:A2 B
*I _191_:S B
*I _190_:ZN B
*CAP
1 _076_ 3.421823
2 _076_ clknet_0_clk 0.004628
3 _076_ entering_sync 0.008760
4 _076_ stuff_bit_out 0.004628
5 _076_ tx_state[4] 0.010653
*RES
1 _076_ _076_:2 16.587000
2 _076_ _076_:3 55.419600
3 _076_ _076_:4 43.538800
4 _076_ _076_:5 44.967400
5 _076_ _076_:6 63.009300
6 _076_ _076_:7 35.000900
7 _076_ _076_:8 53.064200
8 _076_ _076_:9 8.065600
9 _076_ _076_:10 15.641500
10 _076_ _195_:A2 0.000000
11 _076_ _191_:S 0.000000
12 _076_ _190_:ZN 0.000000
*END

*D_NET _077_ 2.575118
*CONN
*P _077_ B
*I _194_:A1 B
*I _193_:A1 B
*I _192_:ZN B
*CAP
1 _077_ 2.564465
2 _077_ raw_mode 0.006025
3 _077_ tx_state[1] 0.004628
*RES
1 _077_ _077_:2 38.697200
2 _077_ _077_:3 4.052600
3 _077_ _077_:4 17.701600
4 _077_ _077_:5 52.117700
5 _077_ _077_:6 43.532700
6 _077_ _077_:7 27.065700
7 _077_ _194_:A1 0.000000
8 _077_ _193_:A1 0.000000
9 _077_ _192_:ZN 0.000000
*END

*D_NET _078_ 3.117481
*CONN
*P _078_ B
*I _197_:A2 B
*I _196_:Z B
*CAP
1 _078_ 3.088385
2 _078_ _080_ 0.004628
3 _078_ _091_ 0.001328
4 _078_ _092_ 0.004628
5 _078_ byte_idx[0] 0.004628
6 _078_ byte_idx[1] 0.004628
7 _078_ clknet_3_7__leaf_clk 0.004628
8 _078_ tx_state[2] 0.004628
*RES
1 _078_ _078_:2 20.715400
2 _078_ _078_:3 24.698300
3 _078_ _078_:4 20.448100
4 _078_ _078_:5 24.972100
5 _078_ _197_:A2 0.000000
6 _078_ _196_:Z 0.000000
*END

*D_NET _079_ 2.806300
*CONN
*P _079_ B
*I _201_:A1 B
*I _197_:ZN B
*CAP
1 _079_ 2.755566
2 _079_ _091_ 0.003801
3 _079_ _092_ 0.003801
4 _079_ byte_idx[0] 0.004628
5 _079_ byte_idx[1] 0.025116
6 _079_ byte_idx[2] 0.008760
7 _079_ tx_state[6] 0.004628
*RES
1 _079_ _079_:2 21.710400
2 _079_ _079_:3 14.856200
3 _079_ _079_:4 22.881100
4 _079_ _079_:5 14.149400
5 _079_ _079_:6 15.866100
6 _079_ _201_:A1 0.000000
7 _079_ _197_:ZN 0.000000
*END

*D_NET _080_ 5.431551
*CONN
*P _080_ B
*I _296_:A1 B
*I _282_:A2 B
*I _200_:A1 B
*I _198_:ZN B
*CAP
1 _080_ 5.354938
2 _080_ _082_ 0.003801
3 _080_ _092_ 0.004628
4 _080_ _134_ 0.023139
5 _080_ byte_idx[0] 0.004628
6 _080_ byte_idx[1] 0.008925
7 _080_ byte_reg[0] 0.004628
8 _080_ byte_reg[1] 0.004628
9 _080_ clknet_3_7__leaf_clk 0.007299
10 _080_ first_byte 0.004628
11 _080_ tx_state[2] 0.010309
*RES
1 _080_ _080_:2 39.724000
2 _080_ _080_:3 32.733100
3 _080_ _080_:4 43.481200
4 _080_ _080_:5 10.609300
5 _080_ _080_:6 63.251400
6 _080_ _080_:7 31.556700
7 _080_ _080_:8 64.165900
8 _080_ _080_:9 5.343600
9 _080_ _296_:A1 0.000000
10 _080_ _282_:A2 0.000000
11 _080_ _200_:A1 0.000000
12 _080_ _198_:ZN 0.000000
*END

*D_NET _081_ 1.362264
*CONN
*P _081_ B
*I _200_:A2 B
*I _199_:Z B
*CAP
1 _081_ 1.362264
*RES
1 _081_ _081_:2 14.321500
2 _081_ _081_:3 26.934000
3 _081_ _081_:4 13.340500
4 _081_ _081_:5 28.087400
5 _081_ _200_:A2 0.000000
6 _081_ _199_:Z 0.000000
*END

*D_NET _082_ 1.758605
*CONN
*P _082_ B
*I _201_:A2 B
*I _200_:ZN B
*CAP
1 _082_ 1.748723
2 _082_ byte_idx[0] 0.009255
3 _082_ byte_idx[2] 0.000627
*RES
1 _082_ _082_:2 20.512600
2 _082_ _082_:3 26.030200
3 _082_ _082_:4 15.990100
4 _082_ _082_:5 11.009900
5 _082_ _082_:6 10.863500
6 _082_ _201_:A2 0.000000
7 _082_ _200_:ZN 0.000000
*END

*D_NET _083_ 1.971521
*CONN
*P _083_ B
*I _203_:A4 B
*I _202_:ZN B
*CAP
1 _083_ 1.958795
2 _083_ byte_idx[0] 0.008925
3 _083_ first_byte 0.003801
*RES
1 _083_ _083_:2 16.478500
2 _083_ _083_:3 21.453100
3 _083_ _083_:4 27.627400
4 _083_ _083_:5 10.959100
5 _083_ _083_:6 11.904700
6 _083_ _203_:A4 0.000000
7 _083_ _202_:ZN 0.000000
*END

*D_NET _084_ 12.182247
*CONN
*P _084_ B
*I _302_:A2 B
*I _252_:A2 B
*I _249_:A2 B
*I _246_:A2 B
*I _243_:A2 B
*I _231_:A2 B
*I _205_:A2 B
*I _204_:ZN B
*CAP
1 _084_ 12.011255
2 _084_ _086_ 0.041649
3 _084_ _089_ 0.013883
4 _084_ _096_ 0.009255
5 _084_ _103_ 0.000307
6 _084_ _104_ 0.004628
7 _084_ _113_ 0.004628
8 _084_ _114_ 0.004842
9 _084_ _115_ 0.004628
10 _084_ _116_ 0.004628
11 _084_ clknet_0_clk 0.004628
12 _084_ clknet_3_2__leaf_clk 0.004628
13 _084_ clknet_3_3__leaf_clk 0.009255
14 _084_ rx_assembly_en 0.011652
15 _084_ rx_bit_valid 0.008429
16 _084_ rx_shift[2] 0.004628
17 _084_ rx_shift[3] 0.004628
18 _084_ rx_shift[4] 0.004628
19 _084_ rx_shift[5] 0.013883
20 _084_ rx_shift[6] 0.004628
21 _084_ u_destuffer\/_03_ 0.011557
*RES
1 _084_ _084_:2 52.503700
2 _084_ _084_:3 46.515500
3 _084_ _084_:4 38.238300
4 _084_ _084_:5 20.952800
5 _084_ _084_:6 22.423800
6 _084_ _084_:7 23.515200
7 _084_ _084_:8 30.439100
8 _084_ _084_:9 77.513000
9 _084_ _084_:10 27.497600
10 _084_ _084_:11 35.965000
11 _084_ _084_:12 22.365800
12 _084_ _084_:13 54.887300
13 _084_ _084_:14 16.256000
14 _084_ _084_:15 47.453600
15 _084_ _084_:16 25.402400
16 _084_ _084_:17 72.488100
17 _084_ _084_:18 73.131600
18 _084_ _302_:A2 0.000000
19 _084_ _252_:A2 0.000000
20 _084_ _249_:A2 0.000000
21 _084_ _246_:A2 0.000000
22 _084_ _243_:A2 0.000000
23 _084_ _231_:A2 0.000000
24 _084_ _205_:A2 0.000000
25 _084_ _204_:ZN 0.000000
*END

*D_NET _085_ 1.549354
*CONN
*P _085_ B
*I _210_:A1 B
*I _205_:ZN B
*CAP
1 _085_ 1.519604
2 _085_ _088_ 0.023139
3 _085_ rx_shift[5] 0.006611
*RES
1 _085_ _085_:2 28.186200
2 _085_ _085_:3 23.764100
3 _085_ _085_:4 12.435400
4 _085_ _085_:5 11.390100
5 _085_ _085_:6 7.252700
6 _085_ _210_:A1 0.000000
7 _085_ _205_:ZN 0.000000
*END

*D_NET _086_ 17.914608
*CONN
*P _086_ B
*I _208_:A2 B
*I _217_:A3 B
*I _232_:A2 B
*I _244_:A2 B
*I _247_:A2 B
*I _250_:A2 B
*I _253_:A2 B
*I _267_:A2 B
*I _300_:A2 B
*I _303_:A2 B
*I _206_:Z B
*CAP
1 _086_ 17.755921
2 _086_ _089_ 0.023772
3 _086_ _096_ 0.009255
4 _086_ _104_ 0.005454
5 _086_ _111_ 0.004628
6 _086_ _112_ 0.004628
7 _086_ _114_ 0.004628
8 _086_ _115_ 0.004628
9 _086_ _116_ 0.004628
10 _086_ _118_ 0.000627
11 _086_ _127_ 0.004628
12 _086_ _145_ 0.004628
13 _086_ _147_ 0.004628
14 _086_ clknet_0_clk 0.004628
15 _086_ clknet_3_2__leaf_clk 0.009255
16 _086_ clknet_3_3__leaf_clk 0.009255
17 _086_ rx_assembly_en 0.004628
18 _086_ rx_bitcnt[0] 0.020990
19 _086_ rx_bitcnt[1] 0.004297
20 _086_ rx_shift[2] 0.006363
21 _086_ rx_shift[3] 0.004628
22 _086_ rx_shift[4] 0.004628
23 _086_ rx_shift[7] 0.013883
*RES
1 _086_ _086_:2 30.286900
2 _086_ _086_:3 41.992900
3 _086_ _086_:4 42.491200
4 _086_ _086_:5 36.195000
5 _086_ _086_:6 36.791700
6 _086_ _086_:7 28.637900
7 _086_ _086_:8 35.024200
8 _086_ _086_:9 34.897400
9 _086_ _086_:10 30.688700
10 _086_ _086_:11 25.879300
11 _086_ _086_:12 66.413700
12 _086_ _086_:13 13.598300
13 _086_ _086_:14 30.548000
14 _086_ _086_:15 37.770600
15 _086_ _086_:16 35.477300
16 _086_ _086_:17 42.895300
17 _086_ _086_:18 35.873600
18 _086_ _086_:19 29.865500
19 _086_ _086_:20 41.358300
20 _086_ _086_:21 35.476400
21 _086_ _086_:22 63.215400
22 _086_ _086_:23 32.349000
23 _086_ _086_:24 17.367100
24 _086_ _086_:25 22.335700
25 _086_ _086_:26 43.105000
26 _086_ _086_:27 41.791600
27 _086_ _086_:28 40.491700
28 _086_ _086_:29 39.206800
29 _086_ _086_:30 44.067800
30 _086_ _086_:31 41.380800
31 _086_ _086_:32 45.442200
32 _086_ _086_:33 42.713300
33 _086_ _208_:A2 0.000000
34 _086_ _217_:A3 0.000000
35 _086_ _232_:A2 0.000000
36 _086_ _244_:A2 0.000000
37 _086_ _247_:A2 0.000000
38 _086_ _250_:A2 0.000000
39 _086_ _253_:A2 0.000000
40 _086_ _267_:A2 0.000000
41 _086_ _300_:A2 0.000000
42 _086_ _303_:A2 0.000000
43 _086_ _206_:Z 0.000000
*END

*D_NET _088_ 1.607578
*CONN
*P _088_ B
*I _210_:A2 B
*I _208_:ZN B
*CAP
1 _088_ 1.601144
2 _088_ rx_shift[6] 0.006434
*RES
1 _088_ _088_:2 25.448600
2 _088_ _088_:3 12.395800
3 _088_ _088_:4 29.156700
4 _088_ _088_:5 6.980300
5 _088_ _088_:6 9.857000
6 _088_ _210_:A2 0.000000
7 _088_ _208_:ZN 0.000000
*END

*D_NET _089_ 16.233630
*CONN
*P _089_ B
*I _304_:B B
*I _301_:A1 B
*I _268_:A1 B
*I _254_:B B
*I _251_:B B
*I _248_:B B
*I _245_:B B
*I _233_:B B
*I _221_:I B
*I _210_:B B
*I _209_:ZN B
*CAP
1 _089_ 16.099754
2 _089_ _095_ 0.008429
3 _089_ _096_ 0.018511
4 _089_ _103_ 0.004628
5 _089_ _111_ 0.004628
6 _089_ _114_ 0.004628
7 _089_ _115_ 0.004628
8 _089_ _116_ 0.004628
9 _089_ _127_ 0.004628
10 _089_ _145_ 0.008925
11 _089_ _146_ 0.004628
12 _089_ clknet_3_2__leaf_clk 0.013883
13 _089_ clknet_3_3__leaf_clk 0.004628
14 _089_ rx_bitcnt[0] 0.010082
15 _089_ rx_receiving 0.013057
16 _089_ rx_shift[3] 0.009255
17 _089_ rx_shift[4] 0.000826
18 _089_ rx_shift[5] 0.004628
19 _089_ rx_shift[6] 0.004628
20 _089_ rx_shift[7] 0.004628
*RES
1 _089_ _089_:2 44.373500
2 _089_ _089_:3 55.459900
3 _089_ _089_:4 50.051400
4 _089_ _089_:5 50.624600
5 _089_ _089_:6 60.162600
6 _089_ _089_:7 58.721800
7 _089_ _089_:8 18.453600
8 _089_ _089_:9 57.684200
9 _089_ _089_:10 57.201100
10 _089_ _089_:11 14.712500
11 _089_ _089_:12 48.717600
12 _089_ _089_:13 55.500100
13 _089_ _089_:14 26.173700
14 _089_ _089_:15 50.366500
15 _089_ _089_:16 49.515400
16 _089_ _089_:17 52.738700
17 _089_ _089_:18 21.086400
18 _089_ _089_:19 41.667600
19 _089_ _089_:20 46.659200
20 _089_ _089_:21 49.510900
21 _089_ _089_:22 14.143600
22 _089_ _089_:23 13.594000
23 _089_ _089_:24 7.645700
24 _089_ _089_:25 8.671600
25 _089_ _089_:26 13.380200
26 _089_ _089_:27 14.992300
27 _089_ _304_:B 0.000000
28 _089_ _301_:A1 0.000000
29 _089_ _268_:A1 0.000000
30 _089_ _254_:B 0.000000
31 _089_ _251_:B 0.000000
32 _089_ _248_:B 0.000000
33 _089_ _245_:B 0.000000
34 _089_ _233_:B 0.000000
35 _089_ _221_:I 0.000000
36 _089_ _210_:B 0.000000
37 _089_ _209_:ZN 0.000000
*END

*D_NET _090_ 1.734850
*CONN
*P _090_ B
*I _216_:A1 B
*I _211_:ZN B
*CAP
1 _090_ 1.725594
2 _090_ _092_ 0.004628
3 _090_ byte_reg[0] 0.004628
*RES
1 _090_ _090_:2 26.418300
2 _090_ _090_:3 17.174900
3 _090_ _090_:4 26.820900
4 _090_ _090_:5 17.237200
5 _090_ _216_:A1 0.000000
6 _090_ _211_:ZN 0.000000
*END

*D_NET _091_ 3.485676
*CONN
*P _091_ B
*I _213_:B1 B
*I _212_:ZN B
*CAP
1 _091_ 3.476728
2 _091_ _092_ 0.003801
3 _091_ byte_idx[1] 0.003801
4 _091_ tx_state[2] 0.001346
*RES
1 _091_ _091_:2 14.800400
2 _091_ _091_:3 19.388200
3 _091_ _091_:4 33.252800
4 _091_ _091_:5 30.226300
5 _091_ _091_:6 31.137800
6 _091_ _091_:7 34.626100
7 _091_ _091_:8 12.843200
8 _091_ _091_:9 21.701300
9 _091_ _091_:10 62.834600
10 _091_ _091_:11 44.484400
11 _091_ _091_:12 43.741300
12 _091_ _213_:B1 0.000000
13 _091_ _212_:ZN 0.000000
*END

*D_NET _092_ 23.434711
*CONN
*P _092_ B
*I _216_:A2 B
*I _224_:A2 B
*I _227_:A2 B
*I _229_:A2 B
*I _230_:A2 B
*I _236_:A2 B
*I _239_:A2 B
*I _242_:A2 B
*I _263_:B1 B
*I _276_:A2 B
*I _275_:A2 B
*I _241_:A2 B
*I _238_:A2 B
*I _235_:A2 B
*I _226_:A2 B
*I _223_:A2 B
*I _215_:A2 B
*I _213_:ZN B
*CAP
1 _092_ 23.288534
2 _092_ _094_ 0.009255
3 _092_ _097_ 0.004628
4 _092_ _098_ 0.009255
5 _092_ _101_ 0.009255
6 _092_ _107_ 0.004628
7 _092_ _109_ 0.004628
8 _092_ _110_ 0.004628
9 _092_ _129_ 0.004628
10 _092_ byte_idx[0] 0.004721
11 _092_ byte_idx[1] 0.007672
12 _092_ byte_reg[0] 0.005454
13 _092_ byte_reg[3] 0.008016
14 _092_ byte_reg[6] 0.004628
15 _092_ byte_reg[7] 0.004628
16 _092_ clknet_0_clk 0.004628
17 _092_ clknet_3_6__leaf_clk 0.004628
18 _092_ clknet_3_7__leaf_clk 0.014710
19 _092_ line_state[0] 0.004628
20 _092_ line_state[1] 0.005941
21 _092_ tx_state[2] 0.020990
22 _092_ txdm 0.004628
*RES
1 _092_ _092_:2 7.968200
2 _092_ _092_:3 4.448300
3 _092_ _092_:4 39.217200
4 _092_ _092_:5 31.267900
5 _092_ _092_:6 26.813100
6 _092_ _092_:7 54.751400
7 _092_ _092_:8 20.325100
8 _092_ _092_:9 45.285600
9 _092_ _092_:10 32.007300
10 _092_ _092_:11 44.002000
11 _092_ _092_:12 29.087800
12 _092_ _092_:13 17.616900
13 _092_ _092_:14 43.646700
14 _092_ _092_:15 32.851900
15 _092_ _092_:16 19.704500
16 _092_ _092_:17 41.483600
17 _092_ _092_:18 25.462400
18 _092_ _092_:19 35.254100
19 _092_ _092_:20 45.651600
20 _092_ _092_:21 23.599300
21 _092_ _092_:22 34.213000
22 _092_ _092_:23 43.034700
23 _092_ _092_:24 54.300000
24 _092_ _092_:25 34.923500
25 _092_ _092_:26 29.303200
26 _092_ _092_:27 38.556800
27 _092_ _092_:28 23.070900
28 _092_ _092_:29 34.974900
29 _092_ _092_:30 28.084800
30 _092_ _092_:31 42.984700
31 _092_ _092_:32 28.148400
32 _092_ _092_:33 21.315600
33 _092_ _092_:34 43.184400
34 _092_ _092_:35 33.867300
35 _092_ _092_:36 29.182400
36 _092_ _092_:37 27.116500
37 _092_ _092_:38 35.806700
38 _092_ _092_:39 32.262900
39 _092_ _092_:40 40.469700
40 _092_ _092_:41 36.151000
41 _092_ _092_:42 39.547900
42 _092_ _092_:43 37.787300
43 _092_ _092_:44 35.384900
44 _092_ _092_:45 34.656600
45 _092_ _092_:46 36.952600
46 _092_ _092_:47 38.653100
47 _092_ _092_:48 36.864000
48 _092_ _092_:49 27.589700
49 _092_ _092_:50 29.902400
50 _092_ _092_:51 33.182400
51 _092_ _216_:A2 0.000000
52 _092_ _224_:A2 0.000000
53 _092_ _227_:A2 0.000000
54 _092_ _229_:A2 0.000000
55 _092_ _230_:A2 0.000000
56 _092_ _236_:A2 0.000000
57 _092_ _239_:A2 0.000000
58 _092_ _242_:A2 0.000000
59 _092_ _263_:B1 0.000000
60 _092_ _276_:A2 0.000000
61 _092_ _275_:A2 0.000000
62 _092_ _241_:A2 0.000000
63 _092_ _238_:A2 0.000000
64 _092_ _235_:A2 0.000000
65 _092_ _226_:A2 0.000000
66 _092_ _223_:A2 0.000000
67 _092_ _215_:A2 0.000000
68 _092_ _213_:ZN 0.000000
*END

*D_NET _094_ 1.774846
*CONN
*P _094_ B
*I _216_:B B
*I _215_:ZN B
*CAP
1 _094_ 1.769662
2 _094_ byte_reg[6] 0.005184
*RES
1 _094_ _094_:2 21.540000
2 _094_ _094_:3 17.528900
3 _094_ _094_:4 20.358700
4 _094_ _094_:5 16.033300
5 _094_ _094_:6 10.565700
6 _094_ _216_:B 0.000000
7 _094_ _215_:ZN 0.000000
*END

*D_NET _095_ 6.808877
*CONN
*P _095_ B
*I _301_:A2 B
*I _272_:A2 B
*I _271_:A2 B
*I _218_:A4 B
*I _217_:Z B
*CAP
1 _095_ 6.776093
2 _095_ _128_ 0.006670
3 _095_ clknet_3_2__leaf_clk 0.009255
4 _095_ rx_bitcnt[0] 0.004628
5 _095_ rx_bitcnt[2] 0.004628
6 _095_ rx_receiving 0.007603
*RES
1 _095_ _095_:2 47.699200
2 _095_ _095_:3 26.003000
3 _095_ _095_:4 41.474000
4 _095_ _095_:5 44.074300
5 _095_ _095_:6 18.591300
6 _095_ _095_:7 51.019500
7 _095_ _095_:8 48.683900
8 _095_ _095_:9 19.128100
9 _095_ _095_:10 17.792800
10 _095_ _095_:11 44.555800
11 _095_ _095_:12 10.000900
12 _095_ _095_:13 13.105400
13 _095_ _095_:14 16.573500
14 _095_ _095_:15 20.218900
15 _095_ _095_:16 12.213800
16 _095_ _095_:17 20.646100
17 _095_ _095_:18 8.188600
18 _095_ _095_:19 16.398600
19 _095_ _301_:A2 0.000000
20 _095_ _272_:A2 0.000000
21 _095_ _271_:A2 0.000000
22 _095_ _218_:A4 0.000000
23 _095_ _217_:Z 0.000000
*END

*D_NET _096_ 24.137730
*CONN
*P _096_ B
*I _220_:S B
*I _269_:S B
*I _270_:S B
*I _273_:S B
*I _277_:S B
*I _286_:S B
*I _287_:S B
*I _288_:S B
*I _320_:D B
*I _218_:Z B
*CAP
1 _096_ 24.043652
2 _096_ _103_ 0.004628
3 _096_ _111_ 0.012720
4 _096_ _112_ 0.004628
5 _096_ clknet_0_clk 0.004628
6 _096_ clknet_3_2__leaf_clk 0.013883
7 _096_ clknet_3_3__leaf_clk 0.010908
8 _096_ rx_receiving 0.016258
9 _096_ rx_shift[1] 0.001964
10 _096_ rx_shift[3] 0.004628
11 _096_ rx_shift[4] 0.009255
12 _096_ rx_shift[6] 0.010578
*RES
1 _096_ _096_:2 30.055000
2 _096_ _096_:3 39.054300
3 _096_ _096_:4 30.986700
4 _096_ _096_:5 35.956600
5 _096_ _096_:6 44.433000
6 _096_ _096_:7 56.241900
7 _096_ _096_:8 67.348500
8 _096_ _096_:9 49.352600
9 _096_ _096_:10 38.491800
10 _096_ _096_:11 28.666100
11 _096_ _096_:12 58.485000
12 _096_ _096_:13 47.184300
13 _096_ _096_:14 41.717700
14 _096_ _096_:15 30.034600
15 _096_ _096_:16 64.783200
16 _096_ _096_:17 46.589700
17 _096_ _096_:18 35.144800
18 _096_ _096_:19 35.678500
19 _096_ _096_:20 57.469400
20 _096_ _096_:21 67.734400
21 _096_ _096_:22 36.400000
22 _096_ _096_:23 50.736500
23 _096_ _096_:24 40.854900
24 _096_ _096_:25 25.800800
25 _096_ _096_:26 61.442700
26 _096_ _096_:27 40.348300
27 _096_ _096_:28 40.841400
28 _096_ _096_:29 62.734200
29 _096_ _096_:30 46.169600
30 _096_ _096_:31 25.502800
31 _096_ _096_:32 31.604700
32 _096_ _096_:33 45.400300
33 _096_ _096_:34 52.123200
34 _096_ _096_:35 50.938200
35 _096_ _096_:36 42.011100
36 _096_ _096_:37 42.897800
37 _096_ _096_:38 43.830000
38 _096_ _096_:39 44.805100
39 _096_ _096_:40 46.712300
40 _096_ _096_:41 48.642300
41 _096_ _096_:42 45.826700
42 _096_ _096_:43 47.651800
43 _096_ _220_:S 0.000000
44 _096_ _269_:S 0.000000
45 _096_ _270_:S 0.000000
46 _096_ _273_:S 0.000000
47 _096_ _277_:S 0.000000
48 _096_ _286_:S 0.000000
49 _096_ _287_:S 0.000000
50 _096_ _288_:S 0.000000
51 _096_ _320_:D 0.000000
52 _096_ _218_:Z 0.000000
*END

*D_NET _097_ 2.109779
*CONN
*P _097_ B
*I _224_:A1 B
*I _222_:ZN B
*CAP
1 _097_ 2.100523
2 _097_ line_state[0] 0.004628
3 _097_ line_state[1] 0.004628
*RES
1 _097_ _097_:2 17.712900
2 _097_ _097_:3 17.494800
3 _097_ _097_:4 27.273300
4 _097_ _097_:5 26.953400
5 _097_ _224_:A1 0.000000
6 _097_ _222_:ZN 0.000000
*END

*D_NET _098_ 1.649479
*CONN
*P _098_ B
*I _224_:B B
*I _223_:ZN B
*CAP
1 _098_ 1.645678
2 _098_ byte_reg[5] 0.003801
*RES
1 _098_ _098_:2 26.343800
2 _098_ _098_:3 22.401100
3 _098_ _098_:4 16.254800
4 _098_ _098_:5 12.882400
5 _098_ _098_:6 7.522400
6 _098_ _224_:B 0.000000
7 _098_ _223_:ZN 0.000000
*END

*D_NET _099_ 1.863762
*CONN
*P _099_ B
*I _227_:A1 B
*I _225_:ZN B
*CAP
1 _099_ 1.842579
2 _099_ clk 0.004628
3 _099_ clknet_0_clk 0.004628
4 _099_ clknet_3_6__leaf_clk 0.007299
5 _099_ txdp 0.004628
*RES
1 _099_ _099_:2 21.941600
2 _099_ _099_:3 22.336800
3 _099_ _099_:4 21.972900
4 _099_ _099_:5 22.197300
5 _099_ _227_:A1 0.000000
6 _099_ _225_:ZN 0.000000
*END

*D_NET _100_ 1.766898
*CONN
*P _100_ B
*I _227_:B B
*I _226_:ZN B
*CAP
1 _100_ 1.753014
2 _100_ line_state[0] 0.004628
3 _100_ line_state[1] 0.004628
4 _100_ txdm 0.004628
*RES
1 _100_ _100_:2 21.552500
2 _100_ _100_:3 17.006700
3 _100_ _100_:4 20.638800
4 _100_ _100_:5 15.863600
5 _100_ _100_:6 10.971800
6 _100_ _227_:B 0.000000
7 _100_ _226_:ZN 0.000000
*END

*D_NET _101_ 5.626451
*CONN
*P _101_ B
*I _230_:A1 B
*I _228_:ZN B
*CAP
1 _101_ 5.570916
2 _101_ _129_ 0.004628
3 _101_ _130_ 0.004628
4 _101_ byte_reg[0] 0.004628
5 _101_ clknet_3_7__leaf_clk 0.009255
6 _101_ line_state[0] 0.004628
7 _101_ line_state[1] 0.004628
8 _101_ rst_n 0.004628
9 _101_ rxdm 0.004628
10 _101_ txdm 0.004628
11 _101_ txdp 0.004628
12 _101_ u_line_state\/_2_ 0.004628
*RES
1 _101_ _101_:2 26.614900
2 _101_ _101_:3 26.680200
3 _101_ _101_:4 26.957000
4 _101_ _101_:5 27.013200
5 _101_ _230_:A1 0.000000
6 _101_ _228_:ZN 0.000000
*END

*D_NET _102_ 1.445343
*CONN
*P _102_ B
*I _230_:B B
*I _229_:ZN B
*CAP
1 _102_ 1.433946
2 _102_ byte_reg[3] 0.011397
*RES
1 _102_ _102_:2 21.105100
2 _102_ _102_:3 18.334800
3 _102_ _102_:4 19.271000
4 _102_ _102_:5 16.006300
5 _102_ _102_:6 9.801400
6 _102_ _230_:B 0.000000
7 _102_ _229_:ZN 0.000000
*END

*D_NET _103_ 1.955294
*CONN
*P _103_ B
*I _233_:A1 B
*I _231_:ZN B
*CAP
1 _103_ 1.953948
2 _103_ rx_shift[7] 0.001346
*RES
1 _103_ _103_:2 8.130300
2 _103_ _103_:3 16.735800
3 _103_ _103_:4 25.722800
4 _103_ _103_:5 17.533400
5 _103_ _103_:6 16.912200
6 _103_ _233_:A1 0.000000
7 _103_ _231_:ZN 0.000000
*END

*D_NET _104_ 1.620401
*CONN
*P _104_ B
*I _233_:A2 B
*I _232_:ZN B
*CAP
1 _104_ 1.616600
2 _104_ rx_out_bit 0.003801
*RES
1 _104_ _104_:2 17.206200
2 _104_ _104_:3 19.854000
3 _104_ _104_:4 20.767000
4 _104_ _104_:5 10.463600
5 _104_ _104_:6 15.783300
6 _104_ _233_:A2 0.000000
7 _104_ _232_:ZN 0.000000
*END

*D_NET _105_ 1.322423
*CONN
*P _105_ B
*I _236_:A1 B
*I _234_:ZN B
*CAP
1 _105_ 1.322423
*RES
1 _105_ _105_:2 21.440900
2 _105_ _105_:3 20.713700
3 _105_ _105_:4 21.861100
4 _105_ _105_:5 21.567600
5 _105_ _236_:A1 0.000000
6 _105_ _234_:ZN 0.000000
*END

*D_NET _106_ 1.488112
*CONN
*P _106_ B
*I _236_:B B
*I _235_:ZN B
*CAP
1 _106_ 1.488112
*RES
1 _106_ _106_:2 29.280800
2 _106_ _106_:3 12.091600
3 _106_ _106_:4 4.149700
4 _106_ _106_:5 19.408500
5 _106_ _106_:6 19.538100
6 _106_ _236_:B 0.000000
7 _106_ _235_:ZN 0.000000
*END

*D_NET _107_ 2.904916
*CONN
*P _107_ B
*I _239_:A1 B
*I _237_:ZN B
*CAP
1 _107_ 2.872520
2 _107_ clk 0.004628
3 _107_ clknet_0_clk 0.004628
4 _107_ clknet_3_6__leaf_clk 0.004628
5 _107_ line_state[0] 0.004628
6 _107_ line_state[1] 0.004628
7 _107_ txdm 0.004628
8 _107_ txdp 0.004628
*RES
1 _107_ _107_:2 23.831400
2 _107_ _107_:3 22.993600
3 _107_ _107_:4 23.825700
4 _107_ _107_:5 22.940500
5 _107_ _239_:A1 0.000000
6 _107_ _237_:ZN 0.000000
*END

*D_NET _108_ 1.577492
*CONN
*P _108_ B
*I _239_:B B
*I _238_:ZN B
*CAP
1 _108_ 1.573691
2 _108_ byte_reg[1] 0.003801
*RES
1 _108_ _108_:2 21.336500
2 _108_ _108_:3 17.080000
3 _108_ _108_:4 20.312300
4 _108_ _108_:5 15.789900
5 _108_ _108_:6 10.668500
6 _108_ _239_:B 0.000000
7 _108_ _238_:ZN 0.000000
*END

*D_NET _109_ 1.712443
*CONN
*P _109_ B
*I _242_:A1 B
*I _240_:ZN B
*CAP
1 _109_ 1.712443
*RES
1 _109_ _109_:2 26.413500
2 _109_ _109_:3 17.171800
3 _109_ _109_:4 26.816000
4 _109_ _109_:5 17.234100
5 _109_ _242_:A1 0.000000
6 _109_ _240_:ZN 0.000000
*END

*D_NET _110_ 1.697786
*CONN
*P _110_ B
*I _242_:B B
*I _241_:ZN B
*CAP
1 _110_ 1.697786
*RES
1 _110_ _110_:2 21.420900
2 _110_ _110_:3 18.153300
3 _110_ _110_:4 19.841300
4 _110_ _110_:5 16.144600
5 _110_ _110_:6 10.106400
6 _110_ _242_:B 0.000000
7 _110_ _241_:ZN 0.000000
*END

*D_NET _111_ 1.438964
*CONN
*P _111_ B
*I _245_:A1 B
*I _243_:ZN B
*CAP
1 _111_ 1.432990
2 _111_ _112_ 0.004628
3 _111_ rx_shift[4] 0.001346
*RES
1 _111_ _111_:2 11.231200
2 _111_ _111_:3 3.188800
3 _111_ _111_:4 29.185400
4 _111_ _111_:5 19.602300
5 _111_ _111_:6 19.470600
6 _111_ _245_:A1 0.000000
7 _111_ _243_:ZN 0.000000
*END

*D_NET _112_ 1.816035
*CONN
*P _112_ B
*I _245_:A2 B
*I _244_:ZN B
*CAP
1 _112_ 1.809601
2 _112_ rx_shift[5] 0.006434
*RES
1 _112_ _112_:2 10.935000
2 _112_ _112_:3 25.170900
3 _112_ _112_:4 16.138500
4 _112_ _112_:5 15.094700
5 _112_ _112_:6 17.605700
6 _112_ _245_:A2 0.000000
7 _112_ _244_:ZN 0.000000
*END

*D_NET _113_ 1.492087
*CONN
*P _113_ B
*I _248_:A1 B
*I _246_:ZN B
*CAP
1 _113_ 1.484307
2 _113_ _114_ 0.004628
3 _113_ rx_shift[3] 0.003152
*RES
1 _113_ _113_:2 1.888400
2 _113_ _113_:3 29.519700
3 _113_ _113_:4 11.701500
4 _113_ _113_:5 20.435000
5 _113_ _113_:6 19.329900
6 _113_ _248_:A1 0.000000
7 _113_ _246_:ZN 0.000000
*END

*D_NET _114_ 1.812401
*CONN
*P _114_ B
*I _248_:A2 B
*I _247_:ZN B
*CAP
1 _114_ 1.803972
2 _114_ clknet_3_2__leaf_clk 0.004628
3 _114_ rx_shift[4] 0.003801
*RES
1 _114_ _114_:2 10.935000
2 _114_ _114_:3 25.170900
3 _114_ _114_:4 16.138500
4 _114_ _114_:5 15.094700
5 _114_ _114_:6 17.605700
6 _114_ _248_:A2 0.000000
7 _114_ _247_:ZN 0.000000
*END

*D_NET _115_ 1.586890
*CONN
*P _115_ B
*I _251_:A1 B
*I _249_:ZN B
*CAP
1 _115_ 1.573550
2 _115_ _116_ 0.000826
3 _115_ rx_shift[2] 0.012514
*RES
1 _115_ _115_:2 20.856600
2 _115_ _115_:3 17.770700
3 _115_ _115_:4 18.929300
4 _115_ _115_:5 10.101800
5 _115_ _115_:6 15.842100
6 _115_ _251_:A1 0.000000
7 _115_ _249_:ZN 0.000000
*END

*D_NET _116_ 1.838612
*CONN
*P _116_ B
*I _251_:A2 B
*I _250_:ZN B
*CAP
1 _116_ 1.830832
2 _116_ rx_shift[2] 0.004628
3 _116_ rx_shift[3] 0.003152
*RES
1 _116_ _116_:2 16.215800
2 _116_ _116_:3 20.763100
3 _116_ _116_:4 21.129200
4 _116_ _116_:5 11.486200
5 _116_ _116_:6 15.548100
6 _116_ _251_:A2 0.000000
7 _116_ _250_:ZN 0.000000
*END

*D_NET _117_ 1.589318
*CONN
*P _117_ B
*I _254_:A1 B
*I _252_:ZN B
*CAP
1 _117_ 1.575441
2 _117_ rx_shift[1] 0.013877
*RES
1 _117_ _117_:2 20.856600
2 _117_ _117_:3 17.770700
3 _117_ _117_:4 18.929300
4 _117_ _117_:5 10.101800
5 _117_ _117_:6 15.842100
6 _117_ _254_:A1 0.000000
7 _117_ _252_:ZN 0.000000
*END

*D_NET _118_ 2.123349
*CONN
*P _118_ B
*I _254_:A2 B
*I _253_:ZN B
*CAP
1 _118_ 2.114920
2 _118_ clknet_3_2__leaf_clk 0.004628
3 _118_ rx_shift[2] 0.003801
*RES
1 _118_ _118_:2 10.166900
2 _118_ _118_:3 24.757300
3 _118_ _118_:4 18.243100
4 _118_ _118_:5 16.498500
5 _118_ _118_:6 16.457600
6 _118_ _254_:A2 0.000000
7 _118_ _253_:ZN 0.000000
*END

*D_NET _119_ 5.930674
*CONN
*P _119_ B
*I _265_:A2 B
*I _261_:A2 B
*I _256_:A2 B
*I _255_:Z B
*CAP
1 _119_ 5.893652
2 _119_ _120_ 0.004628
3 _119_ _143_ 0.004628
4 _119_ clknet_3_5__leaf_clk 0.009255
5 _119_ sync_idx[0] 0.009255
6 _119_ sync_idx[2] 0.004628
7 _119_ tx_state[4] 0.004628
*RES
1 _119_ _119_:2 68.317000
2 _119_ _119_:3 60.388700
3 _119_ _119_:4 14.113500
4 _119_ _119_:5 14.634400
5 _119_ _119_:6 14.783400
6 _119_ _119_:7 45.305000
7 _119_ _119_:8 21.765400
8 _119_ _119_:9 53.082100
9 _119_ _265_:A2 0.000000
10 _119_ _261_:A2 0.000000
11 _119_ _256_:A2 0.000000
12 _119_ _255_:Z 0.000000
*END

*D_NET _120_ 7.561742
*CONN
*P _120_ B
*I _266_:A2 B
*I _260_:A2 B
*I _258_:B1 B
*I _257_:A2 B
*I _256_:Z B
*CAP
1 _120_ 7.506853
2 _120_ _121_ 0.004628
3 _120_ _122_ 0.004628
4 _120_ _123_ 0.009255
5 _120_ clknet_3_5__leaf_clk 0.010569
6 _120_ sync_idx[0] 0.009255
7 _120_ sync_idx[1] 0.009255
8 _120_ sync_idx[2] 0.004628
9 _120_ tx_state[4] 0.002671
*RES
1 _120_ _120_:2 55.121600
2 _120_ _120_:3 46.642100
3 _120_ _120_:4 34.287000
4 _120_ _120_:5 35.585200
5 _120_ _120_:6 34.264300
6 _120_ _120_:7 29.958700
7 _120_ _120_:8 49.150100
8 _120_ _120_:9 33.171700
9 _120_ _120_:10 56.207300
10 _120_ _120_:11 26.004700
11 _120_ _266_:A2 0.000000
12 _120_ _260_:A2 0.000000
13 _120_ _258_:B1 0.000000
14 _120_ _257_:A2 0.000000
15 _120_ _256_:Z 0.000000
*END

*D_NET _121_ 1.985714
*CONN
*P _121_ B
*I _259_:A1 B
*I _257_:Z B
*CAP
1 _121_ 1.980260
2 _121_ clknet_3_5__leaf_clk 0.004628
3 _121_ sync_idx[1] 0.000826
*RES
1 _121_ _121_:2 16.887700
2 _121_ _121_:3 28.755100
3 _121_ _121_:4 29.129700
4 _121_ _121_:5 16.516800
5 _121_ _259_:A1 0.000000
6 _121_ _257_:Z 0.000000
*END

*D_NET _122_ 1.805111
*CONN
*P _122_ B
*I _259_:A2 B
*I _258_:ZN B
*CAP
1 _122_ 1.796682
2 _122_ entering_sync 0.003801
3 _122_ sync_idx[1] 0.004628
*RES
1 _122_ _122_:2 14.220800
2 _122_ _122_:3 26.447300
3 _122_ _122_:4 11.570600
4 _122_ _122_:5 14.218400
5 _122_ _122_:6 17.617800
6 _122_ _122_:7 0.906700
7 _122_ _122_:8 5.558900
8 _122_ _259_:A2 0.000000
9 _122_ _258_:ZN 0.000000
*END

*D_NET _123_ 2.004161
*CONN
*P _123_ B
*I _261_:B B
*I _260_:ZN B
*CAP
1 _123_ 1.983159
2 _123_ sync_idx[1] 0.021002
*RES
1 _123_ _123_:2 25.357400
2 _123_ _123_:3 17.238100
3 _123_ _123_:4 6.573500
4 _123_ _123_:5 9.431100
5 _123_ _123_:6 14.056500
6 _123_ _123_:7 14.416200
7 _123_ _261_:B 0.000000
8 _123_ _260_:ZN 0.000000
*END

*D_NET _124_ 2.335072
*CONN
*P _124_ B
*I _263_:B2 B
*I _262_:ZN B
*CAP
1 _124_ 2.311933
2 _124_ _125_ 0.004628
3 _124_ clknet_3_7__leaf_clk 0.004628
4 _124_ first_byte 0.004628
5 _124_ tx_state[2] 0.009255
*RES
1 _124_ _124_:2 17.897400
2 _124_ _124_:3 18.307700
3 _124_ _124_:4 25.233800
4 _124_ _124_:5 25.649500
5 _124_ _263_:B2 0.000000
6 _124_ _262_:ZN 0.000000
*END

*D_NET _125_ 2.101287
*CONN
*P _125_ B
*I _264_:A2 B
*I _263_:ZN B
*CAP
1 _125_ 2.096659
2 _125_ tx_state[2] 0.004628
*RES
1 _125_ _125_:2 26.911000
2 _125_ _125_:3 17.860300
3 _125_ _125_:4 15.002100
4 _125_ _125_:5 7.094200
5 _125_ _125_:6 9.570100
6 _125_ _125_:7 15.483500
7 _125_ _264_:A2 0.000000
8 _125_ _263_:ZN 0.000000
*END

*D_NET _126_ 2.979859
*CONN
*P _126_ B
*I _266_:B B
*I _265_:ZN B
*CAP
1 _126_ 2.970603
2 _126_ sync_idx[0] 0.004628
3 _126_ sync_idx[2] 0.004628
*RES
1 _126_ _126_:2 25.082500
2 _126_ _126_:3 18.061900
3 _126_ _126_:4 20.562700
4 _126_ _126_:5 13.799300
5 _126_ _126_:6 13.855800
6 _126_ _266_:B 0.000000
7 _126_ _265_:ZN 0.000000
*END

*D_NET _127_ 2.333062
*CONN
*P _127_ B
*I _268_:A2 B
*I _267_:ZN B
*CAP
1 _127_ 2.328434
2 _127_ rx_bitcnt[0] 0.004628
*RES
1 _127_ _127_:2 22.983200
2 _127_ _127_:3 18.001900
3 _127_ _127_:4 1.619900
4 _127_ _127_:5 7.467700
5 _127_ _127_:6 4.139700
6 _127_ _127_:7 6.466100
7 _127_ _127_:8 2.018800
8 _127_ _127_:9 8.296300
9 _127_ _127_:10 9.599600
10 _127_ _127_:11 7.357500
11 _127_ _268_:A2 0.000000
12 _127_ _267_:ZN 0.000000
*END

*D_NET _128_ 2.397500
*CONN
*P _128_ B
*I _272_:B B
*I _271_:ZN B
*CAP
1 _128_ 2.375188
2 _128_ clknet_3_2__leaf_clk 0.004628
3 _128_ rx_bitcnt[2] 0.009255
4 _128_ rx_receiving 0.008429
*RES
1 _128_ _128_:2 12.949400
2 _128_ _128_:3 24.547900
3 _128_ _128_:4 17.274200
4 _128_ _128_:5 12.056800
5 _128_ _128_:6 11.329400
6 _128_ _128_:7 5.273400
7 _128_ _128_:8 3.532500
8 _128_ _272_:B 0.000000
9 _128_ _271_:ZN 0.000000
*END

*D_NET _129_ 1.606221
*CONN
*P _129_ B
*I _276_:A1 B
*I _274_:ZN B
*CAP
1 _129_ 1.596966
2 _129_ clknet_3_7__leaf_clk 0.009255
*RES
1 _129_ _129_:2 16.952000
2 _129_ _129_:3 27.142000
3 _129_ _129_:4 16.477100
4 _129_ _129_:5 26.479700
5 _129_ _276_:A1 0.000000
6 _129_ _274_:ZN 0.000000
*END

*D_NET _130_ 2.112630
*CONN
*P _130_ B
*I _276_:B B
*I _275_:ZN B
*CAP
1 _130_ 2.108002
2 _130_ clknet_3_7__leaf_clk 0.004628
*RES
1 _130_ _130_:2 25.684900
2 _130_ _130_:3 10.561000
3 _130_ _130_:4 17.716200
4 _130_ _130_:5 17.423100
5 _130_ _130_:6 16.199800
6 _130_ _276_:B 0.000000
7 _130_ _275_:ZN 0.000000
*END

*D_NET _131_ 2.318508
*CONN
*P _131_ B
*I _285_:A1 B
*I _278_:ZN B
*CAP
1 _131_ 2.313054
2 _131_ _135_ 0.005454
*RES
1 _131_ _131_:2 30.232700
2 _131_ _131_:3 30.073800
3 _131_ _131_:4 12.732600
4 _131_ _131_:5 12.829400
5 _131_ _131_:6 34.670100
6 _131_ _131_:7 50.009100
7 _131_ _285_:A1 0.000000
8 _131_ _278_:ZN 0.000000
*END

*D_NET _132_ 4.014361
*CONN
*P _132_ B
*I _299_:A1 B
*I _298_:A1 B
*I _282_:A1 B
*I _279_:ZN B
*CAP
1 _132_ 3.967915
2 _132_ _134_ 0.009255
3 _132_ _141_ 0.011056
4 _132_ _144_ 0.006797
5 _132_ byte_idx[0] 0.004628
6 _132_ byte_idx[1] 0.000826
7 _132_ byte_idx[2] 0.004628
8 _132_ clknet_3_7__leaf_clk 0.004628
9 _132_ tx_state[2] 0.004628
*RES
1 _132_ _132_:2 56.518800
2 _132_ _132_:3 1.295200
3 _132_ _132_:4 50.077500
4 _132_ _132_:5 28.763600
5 _132_ _132_:6 67.982300
6 _132_ _132_:7 23.515300
7 _132_ _132_:8 16.656200
8 _132_ _132_:9 39.135300
9 _132_ _299_:A1 0.000000
10 _132_ _298_:A1 0.000000
11 _132_ _282_:A1 0.000000
12 _132_ _279_:ZN 0.000000
*END

*D_NET _133_ 3.878889
*CONN
*P _133_ B
*I _281_:C B
*I _280_:Z B
*CAP
1 _133_ 3.843520
2 _133_ clknet_3_5__leaf_clk 0.004628
3 _133_ entering_sync 0.009255
4 _133_ stuff_consume 0.008429
5 _133_ tx_state[2] 0.008429
6 _133_ tx_state[4] 0.004628
*RES
1 _133_ _133_:2 49.897000
2 _133_ _133_:3 40.569200
3 _133_ _133_:4 28.944100
4 _133_ _133_:5 29.365100
5 _133_ _133_:6 20.299400
6 _133_ _133_:7 19.736900
7 _133_ _281_:C 0.000000
8 _133_ _280_:Z 0.000000
*END

*D_NET _134_ 9.228026
*CONN
*P _134_ B
*I _298_:A2 B
*I _296_:A2 B
*I _295_:A1 B
*I _284_:B B
*I _282_:A3 B
*I _281_:ZN B
*CAP
1 _134_ 9.105011
2 _134_ _135_ 0.027766
3 _134_ _136_ 0.009255
4 _134_ _141_ 0.009255
5 _134_ _142_ 0.004628
6 _134_ byte_idx[0] 0.013883
7 _134_ byte_idx[1] 0.005351
8 _134_ byte_idx[2] 0.004628
9 _134_ clknet_3_7__leaf_clk 0.009255
10 _134_ stuff_consume 0.006446
11 _134_ tx_state[0] 0.004628
12 _134_ tx_state[2] 0.021893
13 _134_ tx_state[4] 0.006027
*RES
1 _134_ _134_:2 30.704500
2 _134_ _134_:3 18.151500
3 _134_ _134_:4 15.220800
4 _134_ _134_:5 27.267800
5 _134_ _134_:6 38.322700
6 _134_ _134_:7 30.043400
7 _134_ _134_:8 23.959900
8 _134_ _134_:9 19.291900
9 _134_ _134_:10 35.008000
10 _134_ _134_:11 25.482300
11 _134_ _134_:12 17.498600
12 _134_ _134_:13 19.414700
13 _134_ _134_:14 21.155100
14 _134_ _134_:15 22.501900
15 _134_ _134_:16 25.838200
16 _134_ _134_:17 27.531800
17 _134_ _134_:18 22.536400
18 _134_ _134_:19 21.605900
19 _134_ _134_:20 23.589100
20 _134_ _134_:21 24.748400
21 _134_ _298_:A2 0.000000
22 _134_ _296_:A2 0.000000
23 _134_ _295_:A1 0.000000
24 _134_ _284_:B 0.000000
25 _134_ _282_:A3 0.000000
26 _134_ _281_:ZN 0.000000
*END

*D_NET _135_ 3.289798
*CONN
*P _135_ B
*I _285_:A2 B
*I _282_:Z B
*CAP
1 _135_ 3.261385
2 _135_ _141_ 0.023785
3 _135_ _142_ 0.004628
*RES
1 _135_ _135_:2 20.552300
2 _135_ _135_:3 27.002900
3 _135_ _135_:4 26.982600
4 _135_ _135_:5 20.458400
5 _135_ _135_:6 20.297700
6 _135_ _135_:7 20.316700
7 _135_ _135_:8 26.742700
8 _135_ _135_:9 26.762000
9 _135_ _285_:A2 0.000000
10 _135_ _282_:Z 0.000000
*END

*D_NET _136_ 2.205860
*CONN
*P _136_ B
*I _284_:A2 B
*I _283_:ZN B
*CAP
1 _136_ 2.181080
2 _136_ byte_idx[0] 0.012709
3 _136_ byte_idx[1] 0.012071
*RES
1 _136_ _136_:2 5.767500
2 _136_ _136_:3 12.987500
3 _136_ _136_:4 17.138600
4 _136_ _136_:5 25.219900
5 _136_ _136_:6 12.691400
6 _136_ _136_:7 12.484200
7 _136_ _284_:A2 0.000000
8 _136_ _283_:ZN 0.000000
*END

*D_NET _137_ 2.562346
*CONN
*P _137_ B
*I _285_:B B
*I _284_:ZN B
*CAP
1 _137_ 2.557718
2 _137_ byte_idx[2] 0.004628
*RES
1 _137_ _137_:2 23.379000
2 _137_ _137_:3 25.563700
3 _137_ _137_:4 42.431600
4 _137_ _137_:5 43.666000
5 _137_ _137_:6 23.390000
6 _137_ _137_:7 24.863400
7 _137_ _137_:8 41.627500
8 _137_ _137_:9 40.655800
9 _137_ _285_:B 0.000000
10 _137_ _284_:ZN 0.000000
*END

*D_NET _138_ 1.662283
*CONN
*P _138_ B
*I _291_:A2 B
*I _290_:ZN B
*CAP
1 _138_ 1.651210
2 _138_ _139_ 0.006446
3 _138_ eop_pulse 0.003801
4 _138_ sync_next 0.000826
*RES
1 _138_ _138_:2 24.861100
2 _138_ _138_:3 6.443700
3 _138_ _138_:4 13.300300
4 _138_ _138_:5 14.034800
5 _138_ _138_:6 12.807200
6 _138_ _138_:7 12.503100
7 _138_ _291_:A2 0.000000
8 _138_ _290_:ZN 0.000000
*END

*D_NET _139_ 2.105787
*CONN
*P _139_ B
*I _292_:I B
*I _291_:ZN B
*CAP
1 _139_ 2.096531
2 _139_ clknet_3_1__leaf_clk 0.004628
3 _139_ rx_receiving 0.004628
*RES
1 _139_ _139_:2 18.851000
2 _139_ _139_:3 24.056000
3 _139_ _139_:4 14.272600
4 _139_ _139_:5 13.576600
5 _139_ _139_:6 7.659400
6 _139_ _139_:7 7.788200
7 _139_ _292_:I 0.000000
8 _139_ _291_:ZN 0.000000
*END

*D_NET _140_ 2.560666
*CONN
*P _140_ B
*I _294_:B B
*I _293_:ZN B
*CAP
1 _140_ 2.533501
2 _140_ byte_idx[0] 0.017909
3 _140_ byte_idx[2] 0.004628
4 _140_ tx_state[2] 0.004628
*RES
1 _140_ _140_:2 19.728600
2 _140_ _140_:3 23.926400
3 _140_ _140_:4 13.424700
4 _140_ _140_:5 13.138100
5 _140_ _140_:6 8.799300
6 _140_ _140_:7 8.614100
7 _140_ _294_:B 0.000000
8 _140_ _293_:ZN 0.000000
*END

*D_NET _141_ 3.054491
*CONN
*P _141_ B
*I _295_:A2 B
*I _294_:ZN B
*CAP
1 _141_ 3.026724
2 _141_ _144_ 0.004628
3 _141_ byte_idx[0] 0.004628
4 _141_ byte_idx[1] 0.009255
5 _141_ byte_idx[2] 0.004628
6 _141_ tx_state[2] 0.004628
*RES
1 _141_ _141_:2 20.540500
2 _141_ _141_:3 24.976000
3 _141_ _141_:4 8.924600
4 _141_ _141_:5 9.203700
5 _141_ _141_:6 13.686600
6 _141_ _141_:7 13.887300
7 _141_ _295_:A2 0.000000
8 _141_ _294_:ZN 0.000000
*END

*D_NET _142_ 1.842881
*CONN
*P _142_ B
*I _296_:B B
*I _295_:ZN B
*CAP
1 _142_ 1.842881
*RES
1 _142_ _142_:2 26.371000
2 _142_ _142_:3 15.562700
3 _142_ _142_:4 10.111400
4 _142_ _142_:5 18.276700
5 _142_ _142_:6 16.048200
6 _142_ _296_:B 0.000000
7 _142_ _295_:ZN 0.000000
*END

*D_NET _143_ 2.749302
*CONN
*P _143_ B
*I _299_:A2 B
*I _297_:ZN B
*CAP
1 _143_ 2.732445
2 _143_ stuff_consume 0.003801
3 _143_ tx_state[2] 0.003801
4 _143_ tx_state[4] 0.009255
*RES
1 _143_ _143_:2 6.730400
2 _143_ _143_:3 21.573700
3 _143_ _143_:4 22.698300
4 _143_ _143_:5 7.426300
5 _143_ _143_:6 8.831900
6 _143_ _143_:7 11.759200
7 _143_ _143_:8 10.281600
8 _143_ _299_:A2 0.000000
9 _143_ _297_:ZN 0.000000
*END

*D_NET _144_ 1.992326
*CONN
*P _144_ B
*I _299_:B B
*I _298_:ZN B
*CAP
1 _144_ 1.987233
2 _144_ byte_idx[1] 0.000465
3 _144_ tx_state[2] 0.004628
*RES
1 _144_ _144_:2 16.654400
2 _144_ _144_:3 21.097700
3 _144_ _144_:4 26.674700
4 _144_ _144_:5 11.773100
5 _144_ _144_:6 10.704300
6 _144_ _299_:B 0.000000
7 _144_ _298_:ZN 0.000000
*END

*D_NET _145_ 1.525063
*CONN
*P _145_ B
*I _301_:A3 B
*I _300_:ZN B
*CAP
1 _145_ 1.525063
*RES
1 _145_ _145_:2 28.098400
2 _145_ _145_:3 12.793600
3 _145_ _145_:4 5.104400
4 _145_ _145_:5 3.025700
5 _145_ _145_:6 19.668800
6 _145_ _145_:7 17.248600
7 _145_ _301_:A3 0.000000
8 _145_ _300_:ZN 0.000000
*END

*D_NET _146_ 1.720645
*CONN
*P _146_ B
*I _304_:A1 B
*I _302_:ZN B
*CAP
1 _146_ 1.713385
2 _146_ rx_shift[6] 0.007260
*RES
1 _146_ _146_:2 13.880300
2 _146_ _146_:3 8.501900
3 _146_ _146_:4 26.626300
4 _146_ _146_:5 16.595300
5 _146_ _146_:6 18.459200
6 _146_ _304_:A1 0.000000
7 _146_ _302_:ZN 0.000000
*END

*D_NET _147_ 1.581912
*CONN
*P _147_ B
*I _304_:A2 B
*I _303_:ZN B
*CAP
1 _147_ 1.563230
2 _147_ clknet_3_3__leaf_clk 0.004628
3 _147_ rx_shift[7] 0.014054
*RES
1 _147_ _147_:2 25.908700
2 _147_ _147_:3 11.639400
3 _147_ _147_:4 29.643600
4 _147_ _147_:5 7.302700
5 _147_ _147_:6 9.164100
6 _147_ _304_:A2 0.000000
7 _147_ _303_:ZN 0.000000
*END

*D_NET bus_reset 3.597078
*CONN
*P bus_reset B
*I u_eop_detector\/_54_:Q B
*I u_eop_detector\/_32_:B B
*I _290_:A3 B
*CAP
1 bus_reset 3.587822
2 bus_reset u_eop_detector\/_10_ 0.004628
3 bus_reset u_eop_detector\/_12_ 0.004628
*RES
1 bus_reset bus_reset:2 36.668200
2 bus_reset bus_reset:3 3.966700
3 bus_reset bus_reset:4 13.324500
4 bus_reset bus_reset:5 45.031600
5 bus_reset bus_reset:6 49.423700
6 bus_reset bus_reset:7 38.711500
7 bus_reset u_eop_detector\/_54_:Q 0.000000
8 bus_reset u_eop_detector\/_32_:B 0.000000
9 bus_reset _290_:A3 0.000000
*END

*D_NET byte_idx\[0\] 24.752716
*CONN
*P byte_idx\[0\] B
*I _317_:Q B
*I _294_:A1 B
*I _293_:A1 B
*I _283_:A1 B
*I _279_:I B
*I _203_:A1 B
*I _199_:S0 B
*I _196_:S0 B
*I _187_:A1 B
*I _154_:A1 B
*CAP
1 byte_idx[0] 24.670244
2 byte_idx[0] byte_idx[1] 0.026940
3 byte_idx[0] byte_idx[2] 0.023965
4 byte_idx[0] clknet_3_7__leaf_clk 0.009255
5 byte_idx[0] tx_state[2] 0.022312
*RES
1 byte_idx[0] byte_idx\[0\]:2 128.536500
2 byte_idx[0] byte_idx\[0\]:3 80.129500
3 byte_idx[0] byte_idx\[0\]:4 85.029800
4 byte_idx[0] byte_idx\[0\]:5 109.513000
5 byte_idx[0] byte_idx\[0\]:6 105.398300
6 byte_idx[0] byte_idx\[0\]:7 77.264200
7 byte_idx[0] byte_idx\[0\]:8 112.093700
8 byte_idx[0] byte_idx\[0\]:9 43.813400
9 byte_idx[0] byte_idx\[0\]:10 47.307700
10 byte_idx[0] byte_idx\[0\]:11 58.156100
11 byte_idx[0] byte_idx\[0\]:12 61.858400
12 byte_idx[0] byte_idx\[0\]:13 36.444900
13 byte_idx[0] byte_idx\[0\]:14 33.328700
14 byte_idx[0] byte_idx\[0\]:15 23.578100
15 byte_idx[0] byte_idx\[0\]:16 25.444500
16 byte_idx[0] byte_idx\[0\]:17 67.092100
17 byte_idx[0] byte_idx\[0\]:18 34.706600
18 byte_idx[0] byte_idx\[0\]:19 41.871800
19 byte_idx[0] byte_idx\[0\]:20 53.914100
20 byte_idx[0] byte_idx\[0\]:21 45.579400
21 byte_idx[0] byte_idx\[0\]:22 121.564700
22 byte_idx[0] byte_idx\[0\]:23 74.420200
23 byte_idx[0] byte_idx\[0\]:24 75.797100
24 byte_idx[0] byte_idx\[0\]:25 76.975800
25 byte_idx[0] byte_idx\[0\]:26 115.502100
26 byte_idx[0] byte_idx\[0\]:27 87.439500
27 byte_idx[0] byte_idx\[0\]:28 124.144000
28 byte_idx[0] byte_idx\[0\]:29 117.760500
29 byte_idx[0] byte_idx\[0\]:30 44.631700
30 byte_idx[0] byte_idx\[0\]:31 63.351800
31 byte_idx[0] byte_idx\[0\]:32 36.124900
32 byte_idx[0] byte_idx\[0\]:33 50.567900
33 byte_idx[0] byte_idx\[0\]:34 63.450900
34 byte_idx[0] byte_idx\[0\]:35 78.802600
35 byte_idx[0] byte_idx\[0\]:36 110.821700
36 byte_idx[0] byte_idx\[0\]:37 96.167600
37 byte_idx[0] byte_idx\[0\]:38 58.950500
38 byte_idx[0] byte_idx\[0\]:39 115.101300
39 byte_idx[0] byte_idx\[0\]:40 47.529500
40 byte_idx[0] byte_idx\[0\]:41 103.300900
41 byte_idx[0] _317_:Q 0.000000
42 byte_idx[0] _294_:A1 0.000000
43 byte_idx[0] _293_:A1 0.000000
44 byte_idx[0] _283_:A1 0.000000
45 byte_idx[0] _279_:I 0.000000
46 byte_idx[0] _203_:A1 0.000000
47 byte_idx[0] _199_:S0 0.000000
48 byte_idx[0] _196_:S0 0.000000
49 byte_idx[0] _187_:A1 0.000000
50 byte_idx[0] _154_:A1 0.000000
*END

*D_NET byte_idx\[1\] 15.710994
*CONN
*P byte_idx\[1\] B
*I _318_:Q B
*I _294_:A2 B
*I _293_:A2 B
*I _283_:A2 B
*I _203_:A2 B
*I _198_:I B
*I _197_:A1 B
*I _187_:A2 B
*I _154_:A2 B
*CAP
1 byte_idx[1] 15.620517
2 byte_idx[1] byte_idx[2] 0.031568
3 byte_idx[1] clknet_3_7__leaf_clk 0.004628
4 byte_idx[1] tx_state[2] 0.054281
*RES
1 byte_idx[1] byte_idx\[1\]:2 24.277400
2 byte_idx[1] byte_idx\[1\]:3 36.390700
3 byte_idx[1] byte_idx\[1\]:4 46.590400
4 byte_idx[1] byte_idx\[1\]:5 50.005300
5 byte_idx[1] byte_idx\[1\]:6 60.277400
6 byte_idx[1] byte_idx\[1\]:7 7.383300
7 byte_idx[1] byte_idx\[1\]:8 11.854100
8 byte_idx[1] byte_idx\[1\]:9 14.728600
9 byte_idx[1] byte_idx\[1\]:10 17.671400
10 byte_idx[1] byte_idx\[1\]:11 62.378900
11 byte_idx[1] byte_idx\[1\]:12 52.679000
12 byte_idx[1] byte_idx\[1\]:13 19.878500
13 byte_idx[1] byte_idx\[1\]:14 61.021800
14 byte_idx[1] byte_idx\[1\]:15 57.455100
15 byte_idx[1] byte_idx\[1\]:16 50.518100
16 byte_idx[1] byte_idx\[1\]:17 56.804500
17 byte_idx[1] byte_idx\[1\]:18 21.887400
18 byte_idx[1] byte_idx\[1\]:19 49.121000
19 byte_idx[1] byte_idx\[1\]:20 46.129900
20 byte_idx[1] byte_idx\[1\]:21 33.359800
21 byte_idx[1] byte_idx\[1\]:22 39.926900
22 byte_idx[1] byte_idx\[1\]:23 28.971500
23 byte_idx[1] byte_idx\[1\]:24 27.161900
24 byte_idx[1] byte_idx\[1\]:25 82.170300
25 byte_idx[1] byte_idx\[1\]:26 69.266500
26 byte_idx[1] byte_idx\[1\]:27 38.532200
27 byte_idx[1] byte_idx\[1\]:28 88.149800
28 byte_idx[1] byte_idx\[1\]:29 64.204200
29 byte_idx[1] byte_idx\[1\]:30 49.367300
30 byte_idx[1] byte_idx\[1\]:31 75.508400
31 byte_idx[1] _318_:Q 0.000000
32 byte_idx[1] _294_:A2 0.000000
33 byte_idx[1] _293_:A2 0.000000
34 byte_idx[1] _283_:A2 0.000000
35 byte_idx[1] _203_:A2 0.000000
36 byte_idx[1] _198_:I 0.000000
37 byte_idx[1] _197_:A1 0.000000
38 byte_idx[1] _187_:A2 0.000000
39 byte_idx[1] _154_:A2 0.000000
*END

*D_NET byte_idx\[2\] 19.621745
*CONN
*P byte_idx\[2\] B
*I _319_:Q B
*I _283_:A3 B
*I _278_:I B
*I _203_:A3 B
*I _199_:S1 B
*I _196_:S1 B
*I _187_:A3 B
*I _154_:A3 B
*CAP
1 byte_idx[2] 19.577121
2 byte_idx[2] clknet_3_7__leaf_clk 0.018511
3 byte_idx[2] tx_state[2] 0.017684
4 byte_idx[2] tx_state[6] 0.008429
*RES
1 byte_idx[2] byte_idx\[2\]:2 69.913500
2 byte_idx[2] byte_idx\[2\]:3 55.246000
3 byte_idx[2] byte_idx\[2\]:4 21.000700
4 byte_idx[2] byte_idx\[2\]:5 26.123500
5 byte_idx[2] byte_idx\[2\]:6 35.671200
6 byte_idx[2] byte_idx\[2\]:7 44.996800
7 byte_idx[2] byte_idx\[2\]:8 42.599800
8 byte_idx[2] byte_idx\[2\]:9 21.897200
9 byte_idx[2] byte_idx\[2\]:10 52.365800
10 byte_idx[2] byte_idx\[2\]:11 20.328100
11 byte_idx[2] byte_idx\[2\]:12 32.771000
12 byte_idx[2] byte_idx\[2\]:13 40.791300
13 byte_idx[2] byte_idx\[2\]:14 28.827400
14 byte_idx[2] byte_idx\[2\]:15 49.263300
15 byte_idx[2] byte_idx\[2\]:16 75.705400
16 byte_idx[2] byte_idx\[2\]:17 57.649400
17 byte_idx[2] byte_idx\[2\]:18 49.803700
18 byte_idx[2] byte_idx\[2\]:19 77.846600
19 byte_idx[2] byte_idx\[2\]:20 22.332500
20 byte_idx[2] byte_idx\[2\]:21 63.358800
21 byte_idx[2] byte_idx\[2\]:22 25.780600
22 byte_idx[2] byte_idx\[2\]:23 46.865000
23 byte_idx[2] byte_idx\[2\]:24 29.550700
24 byte_idx[2] byte_idx\[2\]:25 58.799300
25 byte_idx[2] byte_idx\[2\]:26 49.744900
26 byte_idx[2] byte_idx\[2\]:27 71.976400
27 byte_idx[2] byte_idx\[2\]:28 99.989900
28 byte_idx[2] byte_idx\[2\]:29 56.885400
29 byte_idx[2] byte_idx\[2\]:30 103.880100
30 byte_idx[2] byte_idx\[2\]:31 62.312000
31 byte_idx[2] byte_idx\[2\]:32 28.357200
32 byte_idx[2] byte_idx\[2\]:33 55.864900
33 byte_idx[2] _319_:Q 0.000000
34 byte_idx[2] _283_:A3 0.000000
35 byte_idx[2] _278_:I 0.000000
36 byte_idx[2] _203_:A3 0.000000
37 byte_idx[2] _199_:S1 0.000000
38 byte_idx[2] _196_:S1 0.000000
39 byte_idx[2] _187_:A3 0.000000
40 byte_idx[2] _154_:A3 0.000000
*END

*D_NET byte_reg\[0\] 4.974379
*CONN
*P byte_reg\[0\] B
*I _305_:Q B
*I _241_:A1 B
*I _199_:I0 B
*CAP
1 byte_reg[0] 4.948927
2 byte_reg[0] clknet_3_7__leaf_clk 0.025452
*RES
1 byte_reg[0] byte_reg\[0\]:2 53.069700
2 byte_reg[0] byte_reg\[0\]:3 58.977100
3 byte_reg[0] byte_reg\[0\]:4 21.080900
4 byte_reg[0] byte_reg\[0\]:5 36.715100
5 byte_reg[0] byte_reg\[0\]:6 15.392800
6 byte_reg[0] byte_reg\[0\]:7 43.291700
7 byte_reg[0] _305_:Q 0.000000
8 byte_reg[0] _241_:A1 0.000000
9 byte_reg[0] _199_:I0 0.000000
*END

*D_NET byte_reg\[1\] 3.438808
*CONN
*P byte_reg\[1\] B
*I _306_:Q B
*I _238_:A1 B
*I _199_:I1 B
*CAP
1 byte_reg[1] 3.429552
2 byte_reg[1] byte_reg[5] 0.004628
3 byte_reg[1] clknet_3_7__leaf_clk 0.004628
*RES
1 byte_reg[1] byte_reg\[1\]:2 36.852400
2 byte_reg[1] byte_reg\[1\]:3 46.063300
3 byte_reg[1] byte_reg\[1\]:4 24.520200
4 byte_reg[1] byte_reg\[1\]:5 35.524900
5 byte_reg[1] byte_reg\[1\]:6 21.040100
6 byte_reg[1] byte_reg\[1\]:7 23.527200
7 byte_reg[1] _306_:Q 0.000000
8 byte_reg[1] _238_:A1 0.000000
9 byte_reg[1] _199_:I1 0.000000
*END

*D_NET byte_reg\[2\] 3.182925
*CONN
*P byte_reg\[2\] B
*I _307_:Q B
*I _235_:A1 B
*I _196_:I0 B
*CAP
1 byte_reg[2] 3.155159
2 byte_reg[2] clknet_3_7__leaf_clk 0.027766
*RES
1 byte_reg[2] byte_reg\[2\]:2 42.821400
2 byte_reg[2] byte_reg\[2\]:3 38.788200
3 byte_reg[2] byte_reg\[2\]:4 25.769700
4 byte_reg[2] byte_reg\[2\]:5 48.946800
5 byte_reg[2] byte_reg\[2\]:6 13.609200
6 byte_reg[2] byte_reg\[2\]:7 50.989300
7 byte_reg[2] _307_:Q 0.000000
8 byte_reg[2] _235_:A1 0.000000
9 byte_reg[2] _196_:I0 0.000000
*END

*D_NET byte_reg\[3\] 3.404490
*CONN
*P byte_reg\[3\] B
*I _308_:Q B
*I _229_:A1 B
*I _196_:I1 B
*CAP
1 byte_reg[3] 3.404490
*RES
1 byte_reg[3] byte_reg\[3\]:2 40.859700
2 byte_reg[3] byte_reg\[3\]:3 30.333800
3 byte_reg[3] byte_reg\[3\]:4 7.372400
4 byte_reg[3] byte_reg\[3\]:5 40.437600
5 byte_reg[3] byte_reg\[3\]:6 16.362700
6 byte_reg[3] byte_reg\[3\]:7 51.880000
7 byte_reg[3] _308_:Q 0.000000
8 byte_reg[3] _229_:A1 0.000000
9 byte_reg[3] _196_:I1 0.000000
*END

*D_NET byte_reg\[4\] 3.124255
*CONN
*P byte_reg\[4\] B
*I _309_:Q B
*I _226_:A1 B
*I _199_:I2 B
*CAP
1 byte_reg[4] 3.124255
*RES
1 byte_reg[4] byte_reg\[4\]:2 38.619100
2 byte_reg[4] byte_reg\[4\]:3 49.390400
3 byte_reg[4] byte_reg\[4\]:4 46.252000
4 byte_reg[4] byte_reg\[4\]:5 9.862300
5 byte_reg[4] byte_reg\[4\]:6 34.664700
6 byte_reg[4] byte_reg\[4\]:7 8.501800
7 byte_reg[4] _309_:Q 0.000000
8 byte_reg[4] _226_:A1 0.000000
9 byte_reg[4] _199_:I2 0.000000
*END

*D_NET byte_reg\[5\] 3.887139
*CONN
*P byte_reg\[5\] B
*I _310_:Q B
*I _223_:A1 B
*I _199_:I3 B
*CAP
1 byte_reg[5] 3.882511
2 byte_reg[5] clknet_0_clk 0.004628
*RES
1 byte_reg[5] byte_reg\[5\]:2 50.582300
2 byte_reg[5] byte_reg\[5\]:3 42.486400
3 byte_reg[5] byte_reg\[5\]:4 29.027000
4 byte_reg[5] byte_reg\[5\]:5 11.786100
5 byte_reg[5] byte_reg\[5\]:6 36.888400
6 byte_reg[5] byte_reg\[5\]:7 19.779400
7 byte_reg[5] _310_:Q 0.000000
8 byte_reg[5] _223_:A1 0.000000
9 byte_reg[5] _199_:I3 0.000000
*END

*D_NET byte_reg\[6\] 2.639898
*CONN
*P byte_reg\[6\] B
*I _311_:Q B
*I _215_:A1 B
*I _196_:I2 B
*CAP
1 byte_reg[6] 2.639898
*RES
1 byte_reg[6] byte_reg\[6\]:2 39.905000
2 byte_reg[6] byte_reg\[6\]:3 32.296600
3 byte_reg[6] byte_reg\[6\]:4 49.634300
4 byte_reg[6] byte_reg\[6\]:5 2.473600
5 byte_reg[6] byte_reg\[6\]:6 36.975400
6 byte_reg[6] byte_reg\[6\]:7 23.429600
7 byte_reg[6] _311_:Q 0.000000
8 byte_reg[6] _215_:A1 0.000000
9 byte_reg[6] _196_:I2 0.000000
*END

*D_NET byte_reg\[7\] 2.606915
*CONN
*P byte_reg\[7\] B
*I _312_:Q B
*I _275_:A1 B
*I _196_:I3 B
*CAP
1 byte_reg[7] 2.606915
*RES
1 byte_reg[7] byte_reg\[7\]:2 42.175700
2 byte_reg[7] byte_reg\[7\]:3 25.748100
3 byte_reg[7] byte_reg\[7\]:4 23.122000
4 byte_reg[7] byte_reg\[7\]:5 43.330800
5 byte_reg[7] byte_reg\[7\]:6 23.781200
6 byte_reg[7] byte_reg\[7\]:7 26.387700
7 byte_reg[7] _312_:Q 0.000000
8 byte_reg[7] _275_:A1 0.000000
9 byte_reg[7] _196_:I3 0.000000
*END

*D_NET clk 6.935737
*CONN
*P clk B
*I clkbuf_0_clk:I B
*CAP
1 clk 6.912597
2 clk clknet_0_clk 0.004628
3 clk clknet_3_6__leaf_clk 0.004628
4 clk tx_state[1] 0.004628
5 clk tx_state[5] 0.004628
6 clk txdp 0.004628
*RES
1 clk clk:2 45.897900
2 clk clk:3 45.897900
3 clk clk:4 46.475400
4 clk clk:5 46.475400
5 clk clkbuf_0_clk:I 0.000000
*END

*D_NET clknet_0_clk 33.876680
*CONN
*P clknet_0_clk B
*I clkbuf_3_7__f_clk:I B
*I clkbuf_3_6__f_clk:I B
*I clkbuf_3_5__f_clk:I B
*I clkbuf_3_4__f_clk:I B
*I clkbuf_3_3__f_clk:I B
*I clkbuf_3_2__f_clk:I B
*I clkbuf_3_1__f_clk:I B
*I clkbuf_3_0__f_clk:I B
*I clkbuf_0_clk:Z B
*CAP
1 clknet_0_clk 33.461177
2 clknet_0_clk clknet_3_0__leaf_clk 0.004628
3 clknet_0_clk clknet_3_2__leaf_clk 0.004628
4 clknet_0_clk clknet_3_3__leaf_clk 0.063631
5 clknet_0_clk clknet_3_4__leaf_clk 0.005454
6 clknet_0_clk clknet_3_6__leaf_clk 0.004628
7 clknet_0_clk dec_data_bit 0.060160
8 clknet_0_clk dec_data_strobe 0.009255
9 clknet_0_clk line_state[0] 0.018511
10 clknet_0_clk line_state[1] 0.009255
11 clknet_0_clk nrzi_level 0.008429
12 clknet_0_clk raw_mode 0.013883
13 clknet_0_clk rx_bitcnt[2] 0.004628
14 clknet_0_clk rx_out_bit 0.009255
15 clknet_0_clk rx_receiving 0.017932
16 clknet_0_clk rx_shift[6] 0.004628
17 clknet_0_clk rx_shift[7] 0.004628
18 clknet_0_clk stuff_bit_out 0.004628
19 clknet_0_clk stuff_consume 0.004628
20 clknet_0_clk stuff_pending_after 0.004628
21 clknet_0_clk sync_next 0.004628
22 clknet_0_clk tx_state[1] 0.004628
23 clknet_0_clk tx_state[3] 0.005395
24 clknet_0_clk txdm 0.004628
25 clknet_0_clk txdp 0.013883
26 clknet_0_clk u_decoder\/_02_ 0.004628
27 clknet_0_clk u_destuffer\/_00_ 0.012230
28 clknet_0_clk u_destuffer\/_07_ 0.009272
29 clknet_0_clk u_destuffer\/_08_ 0.004628
30 clknet_0_clk u_encoder\/_1_ 0.013842
31 clknet_0_clk u_encoder\/_2_ 0.004628
32 clknet_0_clk u_eop_detector\/se0_count[5] 0.006280
33 clknet_0_clk u_stuffer\/_02_ 0.004628
34 clknet_0_clk u_stuffer\/_03_ 0.050905
35 clknet_0_clk u_stuffer\/_07_ 0.009255
36 clknet_0_clk u_sync_detector\/_05_ 0.004628
*RES
1 clknet_0_clk clknet_0_clk:2 55.517300
2 clknet_0_clk clknet_0_clk:3 43.431100
3 clknet_0_clk clknet_0_clk:4 43.778200
4 clknet_0_clk clknet_0_clk:5 24.313700
5 clknet_0_clk clknet_0_clk:6 55.697100
6 clknet_0_clk clknet_0_clk:7 50.115000
7 clknet_0_clk clknet_0_clk:8 46.635100
8 clknet_0_clk clknet_0_clk:9 47.634800
9 clknet_0_clk clknet_0_clk:10 41.646200
10 clknet_0_clk clknet_0_clk:11 58.302200
11 clknet_0_clk clknet_0_clk:12 27.092200
12 clknet_0_clk clknet_0_clk:13 44.627200
13 clknet_0_clk clknet_0_clk:14 53.395700
14 clknet_0_clk clknet_0_clk:15 51.975000
15 clknet_0_clk clknet_0_clk:16 44.861600
16 clknet_0_clk clknet_0_clk:17 41.007900
17 clknet_0_clk clknet_0_clk:18 45.700100
18 clknet_0_clk clknet_0_clk:19 42.451300
19 clknet_0_clk clknet_0_clk:20 55.853000
20 clknet_0_clk clknet_0_clk:21 56.401800
21 clknet_0_clk clknet_0_clk:22 24.718900
22 clknet_0_clk clknet_0_clk:23 51.100900
23 clknet_0_clk clknet_0_clk:24 47.209300
24 clknet_0_clk clknet_0_clk:25 43.340100
25 clknet_0_clk clknet_0_clk:26 41.471700
26 clknet_0_clk clknet_0_clk:27 42.645600
27 clknet_0_clk clknet_0_clk:28 57.621600
28 clknet_0_clk clknet_0_clk:29 45.310200
29 clknet_0_clk clknet_0_clk:30 45.585300
30 clknet_0_clk clknet_0_clk:31 51.006900
31 clknet_0_clk clknet_0_clk:32 26.724900
32 clknet_0_clk clknet_0_clk:33 53.045400
33 clknet_0_clk clknet_0_clk:34 2.502900
34 clknet_0_clk clknet_0_clk:35 4.186900
35 clknet_0_clk clknet_0_clk:36 5.142700
36 clknet_0_clk clknet_0_clk:37 3.286700
37 clknet_0_clk clknet_0_clk:38 1.747600
38 clknet_0_clk clknet_0_clk:39 3.758200
39 clknet_0_clk clknet_0_clk:40 4.790000
40 clknet_0_clk clknet_0_clk:41 2.737600
41 clknet_0_clk clkbuf_3_7__f_clk:I 0.000000
42 clknet_0_clk clkbuf_3_6__f_clk:I 0.000000
43 clknet_0_clk clkbuf_3_5__f_clk:I 0.000000
44 clknet_0_clk clkbuf_3_4__f_clk:I 0.000000
45 clknet_0_clk clkbuf_3_3__f_clk:I 0.000000
46 clknet_0_clk clkbuf_3_2__f_clk:I 0.000000
47 clknet_0_clk clkbuf_3_1__f_clk:I 0.000000
48 clknet_0_clk clkbuf_3_0__f_clk:I 0.000000
49 clknet_0_clk clkbuf_0_clk:Z 0.000000
*END

*D_NET clknet_3_0__leaf_clk 19.031010
*CONN
*P clknet_3_0__leaf_clk B
*I clkload0:I B
*I u_decoder\/_11_:CLK B
*I u_decoder\/_12_:CLK B
*I u_destuffer\/_32_:CLK B
*I u_destuffer\/_33_:CLK B
*I u_destuffer\/_37_:CLK B
*I u_eop_detector\/_58_:CLK B
*I u_sync_detector\/_34_:CLK B
*I u_sync_detector\/_35_:CLK B
*I u_sync_detector\/_36_:CLK B
*I clkbuf_3_0__f_clk:Z B
*CAP
1 clknet_3_0__leaf_clk 18.960766
2 clknet_3_0__leaf_clk dec_data_bit 0.004628
3 clknet_3_0__leaf_clk dec_data_strobe 0.009255
4 clknet_3_0__leaf_clk rx_receiving 0.004628
5 clknet_3_0__leaf_clk u_destuffer\/_00_ 0.004628
6 clknet_3_0__leaf_clk u_destuffer\/_01_ 0.005454
7 clknet_3_0__leaf_clk u_sync_detector\/_02_ 0.009255
8 clknet_3_0__leaf_clk u_sync_detector\/_03_ 0.004628
9 clknet_3_0__leaf_clk u_sync_detector\/_09_ 0.004628
10 clknet_3_0__leaf_clk u_sync_detector\/_10_ 0.004628
11 clknet_3_0__leaf_clk u_sync_detector\/_11_ 0.004628
12 clknet_3_0__leaf_clk u_sync_detector\/_12_ 0.004628
13 clknet_3_0__leaf_clk u_sync_detector\/match[0] 0.004628
14 clknet_3_0__leaf_clk u_sync_detector\/match[1] 0.004628
*RES
1 clknet_3_0__leaf_clk clknet_3_0__leaf_clk:2 4.419700
2 clknet_3_0__leaf_clk clknet_3_0__leaf_clk:3 7.316100
3 clknet_3_0__leaf_clk clknet_3_0__leaf_clk:4 5.037300
4 clknet_3_0__leaf_clk clknet_3_0__leaf_clk:5 9.679000
5 clknet_3_0__leaf_clk clknet_3_0__leaf_clk:6 10.275800
6 clknet_3_0__leaf_clk clknet_3_0__leaf_clk:7 8.055900
7 clknet_3_0__leaf_clk clknet_3_0__leaf_clk:8 6.017600
8 clknet_3_0__leaf_clk clknet_3_0__leaf_clk:9 108.856700
9 clknet_3_0__leaf_clk clknet_3_0__leaf_clk:10 16.903500
10 clknet_3_0__leaf_clk clknet_3_0__leaf_clk:11 12.542100
11 clknet_3_0__leaf_clk clknet_3_0__leaf_clk:12 71.405700
12 clknet_3_0__leaf_clk clknet_3_0__leaf_clk:13 76.470600
13 clknet_3_0__leaf_clk clknet_3_0__leaf_clk:14 56.204600
14 clknet_3_0__leaf_clk clknet_3_0__leaf_clk:15 32.637900
15 clknet_3_0__leaf_clk clknet_3_0__leaf_clk:16 43.995200
16 clknet_3_0__leaf_clk clknet_3_0__leaf_clk:17 63.871400
17 clknet_3_0__leaf_clk clknet_3_0__leaf_clk:18 3.038500
18 clknet_3_0__leaf_clk clknet_3_0__leaf_clk:19 75.991100
19 clknet_3_0__leaf_clk clknet_3_0__leaf_clk:20 113.833500
20 clknet_3_0__leaf_clk clknet_3_0__leaf_clk:21 61.298000
21 clknet_3_0__leaf_clk clknet_3_0__leaf_clk:22 45.093400
22 clknet_3_0__leaf_clk clknet_3_0__leaf_clk:23 30.959800
23 clknet_3_0__leaf_clk clknet_3_0__leaf_clk:24 16.330100
24 clknet_3_0__leaf_clk clknet_3_0__leaf_clk:25 17.236000
25 clknet_3_0__leaf_clk clknet_3_0__leaf_clk:26 72.122500
26 clknet_3_0__leaf_clk clknet_3_0__leaf_clk:27 60.923800
27 clknet_3_0__leaf_clk clknet_3_0__leaf_clk:28 19.534900
28 clknet_3_0__leaf_clk clknet_3_0__leaf_clk:29 21.794700
29 clknet_3_0__leaf_clk clknet_3_0__leaf_clk:30 23.231800
30 clknet_3_0__leaf_clk clknet_3_0__leaf_clk:31 20.550100
31 clknet_3_0__leaf_clk clknet_3_0__leaf_clk:32 25.258800
32 clknet_3_0__leaf_clk clknet_3_0__leaf_clk:33 27.024700
33 clknet_3_0__leaf_clk clknet_3_0__leaf_clk:34 28.187000
34 clknet_3_0__leaf_clk clknet_3_0__leaf_clk:35 26.041600
35 clknet_3_0__leaf_clk clkload0:I 0.000000
36 clknet_3_0__leaf_clk u_decoder\/_11_:CLK 0.000000
37 clknet_3_0__leaf_clk u_decoder\/_12_:CLK 0.000000
38 clknet_3_0__leaf_clk u_destuffer\/_32_:CLK 0.000000
39 clknet_3_0__leaf_clk u_destuffer\/_33_:CLK 0.000000
40 clknet_3_0__leaf_clk u_destuffer\/_37_:CLK 0.000000
41 clknet_3_0__leaf_clk u_eop_detector\/_58_:CLK 0.000000
42 clknet_3_0__leaf_clk u_sync_detector\/_34_:CLK 0.000000
43 clknet_3_0__leaf_clk u_sync_detector\/_35_:CLK 0.000000
44 clknet_3_0__leaf_clk u_sync_detector\/_36_:CLK 0.000000
45 clknet_3_0__leaf_clk clkbuf_3_0__f_clk:Z 0.000000
*END

*D_NET clknet_3_1__leaf_clk 19.206102
*CONN
*P clknet_3_1__leaf_clk B
*I clkload1:I B
*I _341_:CLK B
*I u_decoder\/_10_:CLK B
*I u_eop_detector\/_54_:CLK B
*I u_eop_detector\/_55_:CLK B
*I u_eop_detector\/_57_:CLK B
*I u_eop_detector\/_59_:CLK B
*I u_eop_detector\/_60_:CLK B
*I u_sync_detector\/_33_:CLK B
*I u_sync_detector\/_37_:CLK B
*I clkbuf_3_1__f_clk:Z B
*CAP
1 clknet_3_1__leaf_clk 19.069560
2 clknet_3_1__leaf_clk rx_receiving 0.013883
3 clknet_3_1__leaf_clk sync_next 0.004628
4 clknet_3_1__leaf_clk u_decoder\/_03_ 0.004628
5 clknet_3_1__leaf_clk u_decoder\/_04_ 0.004628
6 clknet_3_1__leaf_clk u_eop_detector\/_05_ 0.004628
7 clknet_3_1__leaf_clk u_eop_detector\/_07_ 0.004628
8 clknet_3_1__leaf_clk u_eop_detector\/_09_ 0.009255
9 clknet_3_1__leaf_clk u_eop_detector\/_10_ 0.004628
10 clknet_3_1__leaf_clk u_eop_detector\/_12_ 0.004628
11 clknet_3_1__leaf_clk u_eop_detector\/_15_ 0.004628
12 clknet_3_1__leaf_clk u_eop_detector\/_23_ 0.004628
13 clknet_3_1__leaf_clk u_eop_detector\/_24_ 0.004628
14 clknet_3_1__leaf_clk u_eop_detector\/_25_ 0.004628
15 clknet_3_1__leaf_clk u_eop_detector\/se0_count[2] 0.032394
16 clknet_3_1__leaf_clk u_eop_detector\/se0_count[3] 0.004628
17 clknet_3_1__leaf_clk u_sync_detector\/_00_ 0.016218
18 clknet_3_1__leaf_clk u_sync_detector\/_09_ 0.004628
19 clknet_3_1__leaf_clk u_sync_detector\/_11_ 0.004628
*RES
1 clknet_3_1__leaf_clk clknet_3_1__leaf_clk:2 85.922900
2 clknet_3_1__leaf_clk clknet_3_1__leaf_clk:3 20.787200
3 clknet_3_1__leaf_clk clknet_3_1__leaf_clk:4 26.724300
4 clknet_3_1__leaf_clk clknet_3_1__leaf_clk:5 26.827300
5 clknet_3_1__leaf_clk clknet_3_1__leaf_clk:6 26.879400
6 clknet_3_1__leaf_clk clknet_3_1__leaf_clk:7 20.430600
7 clknet_3_1__leaf_clk clknet_3_1__leaf_clk:8 20.331700
8 clknet_3_1__leaf_clk clknet_3_1__leaf_clk:9 20.210800
9 clknet_3_1__leaf_clk clknet_3_1__leaf_clk:10 42.965200
10 clknet_3_1__leaf_clk clknet_3_1__leaf_clk:11 33.664700
11 clknet_3_1__leaf_clk clknet_3_1__leaf_clk:12 44.523700
12 clknet_3_1__leaf_clk clknet_3_1__leaf_clk:13 55.249600
13 clknet_3_1__leaf_clk clknet_3_1__leaf_clk:14 97.388500
14 clknet_3_1__leaf_clk clknet_3_1__leaf_clk:15 43.537200
15 clknet_3_1__leaf_clk clknet_3_1__leaf_clk:16 88.902900
16 clknet_3_1__leaf_clk clknet_3_1__leaf_clk:17 14.191300
17 clknet_3_1__leaf_clk clknet_3_1__leaf_clk:18 27.185500
18 clknet_3_1__leaf_clk clknet_3_1__leaf_clk:19 80.624300
19 clknet_3_1__leaf_clk clknet_3_1__leaf_clk:20 51.814800
20 clknet_3_1__leaf_clk clknet_3_1__leaf_clk:21 38.900300
21 clknet_3_1__leaf_clk clknet_3_1__leaf_clk:22 41.492500
22 clknet_3_1__leaf_clk clknet_3_1__leaf_clk:23 43.101800
23 clknet_3_1__leaf_clk clknet_3_1__leaf_clk:24 38.944500
24 clknet_3_1__leaf_clk clknet_3_1__leaf_clk:25 8.851800
25 clknet_3_1__leaf_clk clknet_3_1__leaf_clk:26 92.042200
26 clknet_3_1__leaf_clk clknet_3_1__leaf_clk:27 83.741300
27 clknet_3_1__leaf_clk clknet_3_1__leaf_clk:28 6.619700
28 clknet_3_1__leaf_clk clknet_3_1__leaf_clk:29 3.482100
29 clknet_3_1__leaf_clk clknet_3_1__leaf_clk:30 8.967400
30 clknet_3_1__leaf_clk clknet_3_1__leaf_clk:31 4.588700
31 clknet_3_1__leaf_clk clknet_3_1__leaf_clk:32 6.313700
32 clknet_3_1__leaf_clk clknet_3_1__leaf_clk:33 3.066400
33 clknet_3_1__leaf_clk clknet_3_1__leaf_clk:34 8.708600
34 clknet_3_1__leaf_clk clknet_3_1__leaf_clk:35 4.209200
35 clknet_3_1__leaf_clk clkload1:I 0.000000
36 clknet_3_1__leaf_clk _341_:CLK 0.000000
37 clknet_3_1__leaf_clk u_decoder\/_10_:CLK 0.000000
38 clknet_3_1__leaf_clk u_eop_detector\/_54_:CLK 0.000000
39 clknet_3_1__leaf_clk u_eop_detector\/_55_:CLK 0.000000
40 clknet_3_1__leaf_clk u_eop_detector\/_57_:CLK 0.000000
41 clknet_3_1__leaf_clk u_eop_detector\/_59_:CLK 0.000000
42 clknet_3_1__leaf_clk u_eop_detector\/_60_:CLK 0.000000
43 clknet_3_1__leaf_clk u_sync_detector\/_33_:CLK 0.000000
44 clknet_3_1__leaf_clk u_sync_detector\/_37_:CLK 0.000000
45 clknet_3_1__leaf_clk clkbuf_3_1__f_clk:Z 0.000000
*END

*D_NET clknet_3_2__leaf_clk 22.850934
*CONN
*P clknet_3_2__leaf_clk B
*I _321_:CLK B
*I _322_:CLK B
*I _323_:CLK B
*I _324_:CLK B
*I _329_:CLK B
*I _330_:CLK B
*I _331_:CLK B
*I _332_:CLK B
*I _333_:CLK B
*I _338_:CLK B
*I _339_:CLK B
*I _340_:CLK B
*I u_destuffer\/_34_:CLK B
*I u_destuffer\/_35_:CLK B
*I u_destuffer\/_36_:CLK B
*I clkbuf_3_2__f_clk:Z B
*CAP
1 clknet_3_2__leaf_clk 22.823167
2 clknet_3_2__leaf_clk rx_bitcnt[2] 0.009255
3 clknet_3_2__leaf_clk rx_receiving 0.004628
4 clknet_3_2__leaf_clk rx_shift[1] 0.004628
5 clknet_3_2__leaf_clk rx_shift[2] 0.004628
6 clknet_3_2__leaf_clk rx_shift[3] 0.004628
*RES
1 clknet_3_2__leaf_clk clknet_3_2__leaf_clk:2 33.221100
2 clknet_3_2__leaf_clk clknet_3_2__leaf_clk:3 40.171900
3 clknet_3_2__leaf_clk clknet_3_2__leaf_clk:4 41.716700
4 clknet_3_2__leaf_clk clknet_3_2__leaf_clk:5 29.037000
5 clknet_3_2__leaf_clk clknet_3_2__leaf_clk:6 52.308700
6 clknet_3_2__leaf_clk clknet_3_2__leaf_clk:7 52.482100
7 clknet_3_2__leaf_clk clknet_3_2__leaf_clk:8 37.466000
8 clknet_3_2__leaf_clk clknet_3_2__leaf_clk:9 39.968900
9 clknet_3_2__leaf_clk clknet_3_2__leaf_clk:10 25.196700
10 clknet_3_2__leaf_clk clknet_3_2__leaf_clk:11 5.706400
11 clknet_3_2__leaf_clk clknet_3_2__leaf_clk:12 50.066900
12 clknet_3_2__leaf_clk clknet_3_2__leaf_clk:13 43.286000
13 clknet_3_2__leaf_clk clknet_3_2__leaf_clk:14 52.839400
14 clknet_3_2__leaf_clk clknet_3_2__leaf_clk:15 47.593800
15 clknet_3_2__leaf_clk clknet_3_2__leaf_clk:16 48.871700
16 clknet_3_2__leaf_clk clknet_3_2__leaf_clk:17 38.438100
17 clknet_3_2__leaf_clk clknet_3_2__leaf_clk:18 44.975400
18 clknet_3_2__leaf_clk clknet_3_2__leaf_clk:19 28.656200
19 clknet_3_2__leaf_clk clknet_3_2__leaf_clk:20 40.493400
20 clknet_3_2__leaf_clk clknet_3_2__leaf_clk:21 35.710900
21 clknet_3_2__leaf_clk clknet_3_2__leaf_clk:22 32.927000
22 clknet_3_2__leaf_clk clknet_3_2__leaf_clk:23 45.133000
23 clknet_3_2__leaf_clk clknet_3_2__leaf_clk:24 55.104700
24 clknet_3_2__leaf_clk clknet_3_2__leaf_clk:25 46.407700
25 clknet_3_2__leaf_clk clknet_3_2__leaf_clk:26 49.056400
26 clknet_3_2__leaf_clk clknet_3_2__leaf_clk:27 32.089800
27 clknet_3_2__leaf_clk clknet_3_2__leaf_clk:28 2.488600
28 clknet_3_2__leaf_clk clknet_3_2__leaf_clk:29 55.517800
29 clknet_3_2__leaf_clk clknet_3_2__leaf_clk:30 52.871800
30 clknet_3_2__leaf_clk clknet_3_2__leaf_clk:31 42.295100
31 clknet_3_2__leaf_clk clknet_3_2__leaf_clk:32 33.736400
32 clknet_3_2__leaf_clk clknet_3_2__leaf_clk:33 30.822500
33 clknet_3_2__leaf_clk clknet_3_2__leaf_clk:34 35.226500
34 clknet_3_2__leaf_clk clknet_3_2__leaf_clk:35 32.267300
35 clknet_3_2__leaf_clk clknet_3_2__leaf_clk:36 35.952500
36 clknet_3_2__leaf_clk clknet_3_2__leaf_clk:37 33.241400
37 clknet_3_2__leaf_clk clknet_3_2__leaf_clk:38 37.350900
38 clknet_3_2__leaf_clk clknet_3_2__leaf_clk:39 34.581500
39 clknet_3_2__leaf_clk _321_:CLK 0.000000
40 clknet_3_2__leaf_clk _322_:CLK 0.000000
41 clknet_3_2__leaf_clk _323_:CLK 0.000000
42 clknet_3_2__leaf_clk _324_:CLK 0.000000
43 clknet_3_2__leaf_clk _329_:CLK 0.000000
44 clknet_3_2__leaf_clk _330_:CLK 0.000000
45 clknet_3_2__leaf_clk _331_:CLK 0.000000
46 clknet_3_2__leaf_clk _332_:CLK 0.000000
47 clknet_3_2__leaf_clk _333_:CLK 0.000000
48 clknet_3_2__leaf_clk _338_:CLK 0.000000
49 clknet_3_2__leaf_clk _339_:CLK 0.000000
50 clknet_3_2__leaf_clk _340_:CLK 0.000000
51 clknet_3_2__leaf_clk u_destuffer\/_34_:CLK 0.000000
52 clknet_3_2__leaf_clk u_destuffer\/_35_:CLK 0.000000
53 clknet_3_2__leaf_clk u_destuffer\/_36_:CLK 0.000000
54 clknet_3_2__leaf_clk clkbuf_3_2__f_clk:Z 0.000000
*END

*D_NET clknet_3_3__leaf_clk 18.557517
*CONN
*P clknet_3_3__leaf_clk B
*I clkload2:I B
*I _313_:CLK B
*I _320_:CLK B
*I _325_:CLK B
*I _326_:CLK B
*I _327_:CLK B
*I _328_:CLK B
*I _334_:CLK B
*I _335_:CLK B
*I _336_:CLK B
*I _345_:CLK B
*I _347_:CLK B
*I clkbuf_3_3__f_clk:Z B
*CAP
1 clknet_3_3__leaf_clk 18.514885
2 clknet_3_3__leaf_clk rx_out_bit 0.013883
3 clknet_3_3__leaf_clk rx_receiving 0.004628
4 clknet_3_3__leaf_clk rx_shift[5] 0.004628
5 clknet_3_3__leaf_clk rx_shift[6] 0.010237
6 clknet_3_3__leaf_clk rx_shift[7] 0.004628
7 clknet_3_3__leaf_clk rx_stuff_err 0.004628
*RES
1 clknet_3_3__leaf_clk clknet_3_3__leaf_clk:2 11.797700
2 clknet_3_3__leaf_clk clknet_3_3__leaf_clk:3 5.817300
3 clknet_3_3__leaf_clk clknet_3_3__leaf_clk:4 2.800500
4 clknet_3_3__leaf_clk clknet_3_3__leaf_clk:5 8.390800
5 clknet_3_3__leaf_clk clknet_3_3__leaf_clk:6 9.776500
6 clknet_3_3__leaf_clk clknet_3_3__leaf_clk:7 56.805200
7 clknet_3_3__leaf_clk clknet_3_3__leaf_clk:8 51.205600
8 clknet_3_3__leaf_clk clknet_3_3__leaf_clk:9 43.908600
9 clknet_3_3__leaf_clk clknet_3_3__leaf_clk:10 64.488800
10 clknet_3_3__leaf_clk clknet_3_3__leaf_clk:11 38.399000
11 clknet_3_3__leaf_clk clknet_3_3__leaf_clk:12 78.636900
12 clknet_3_3__leaf_clk clknet_3_3__leaf_clk:13 21.376000
13 clknet_3_3__leaf_clk clknet_3_3__leaf_clk:14 77.277600
14 clknet_3_3__leaf_clk clknet_3_3__leaf_clk:15 81.002100
15 clknet_3_3__leaf_clk clknet_3_3__leaf_clk:16 70.356300
16 clknet_3_3__leaf_clk clknet_3_3__leaf_clk:17 27.082700
17 clknet_3_3__leaf_clk clknet_3_3__leaf_clk:18 8.846900
18 clknet_3_3__leaf_clk clknet_3_3__leaf_clk:19 72.801200
19 clknet_3_3__leaf_clk clknet_3_3__leaf_clk:20 45.443900
20 clknet_3_3__leaf_clk clknet_3_3__leaf_clk:21 62.865200
21 clknet_3_3__leaf_clk clknet_3_3__leaf_clk:22 71.250000
22 clknet_3_3__leaf_clk clknet_3_3__leaf_clk:23 15.547900
23 clknet_3_3__leaf_clk clknet_3_3__leaf_clk:24 21.089300
24 clknet_3_3__leaf_clk clknet_3_3__leaf_clk:25 41.534500
25 clknet_3_3__leaf_clk clknet_3_3__leaf_clk:26 74.824600
26 clknet_3_3__leaf_clk clknet_3_3__leaf_clk:27 59.525000
27 clknet_3_3__leaf_clk clknet_3_3__leaf_clk:28 75.779700
28 clknet_3_3__leaf_clk clknet_3_3__leaf_clk:29 43.967900
29 clknet_3_3__leaf_clk clknet_3_3__leaf_clk:30 14.323600
30 clknet_3_3__leaf_clk clknet_3_3__leaf_clk:31 14.150200
31 clknet_3_3__leaf_clk clknet_3_3__leaf_clk:32 15.338800
32 clknet_3_3__leaf_clk clknet_3_3__leaf_clk:33 13.909800
33 clknet_3_3__leaf_clk clknet_3_3__leaf_clk:34 7.188400
34 clknet_3_3__leaf_clk clknet_3_3__leaf_clk:35 6.955700
35 clknet_3_3__leaf_clk clknet_3_3__leaf_clk:36 8.997900
36 clknet_3_3__leaf_clk clknet_3_3__leaf_clk:37 6.388500
37 clknet_3_3__leaf_clk clkload2:I 0.000000
38 clknet_3_3__leaf_clk _313_:CLK 0.000000
39 clknet_3_3__leaf_clk _320_:CLK 0.000000
40 clknet_3_3__leaf_clk _325_:CLK 0.000000
41 clknet_3_3__leaf_clk _326_:CLK 0.000000
42 clknet_3_3__leaf_clk _327_:CLK 0.000000
43 clknet_3_3__leaf_clk _328_:CLK 0.000000
44 clknet_3_3__leaf_clk _334_:CLK 0.000000
45 clknet_3_3__leaf_clk _335_:CLK 0.000000
46 clknet_3_3__leaf_clk _336_:CLK 0.000000
47 clknet_3_3__leaf_clk _345_:CLK 0.000000
48 clknet_3_3__leaf_clk _347_:CLK 0.000000
49 clknet_3_3__leaf_clk clkbuf_3_3__f_clk:Z 0.000000
*END

*D_NET clknet_3_4__leaf_clk 16.198757
*CONN
*P clknet_3_4__leaf_clk B
*I clkload3:I B
*I u_encoder\/_6_:CLK B
*I u_eop_detector\/_56_:CLK B
*I u_eop_detector\/_61_:CLK B
*I u_stuffer\/_32_:CLK B
*I u_stuffer\/_33_:CLK B
*I clkbuf_3_4__f_clk:Z B
*CAP
1 clknet_3_4__leaf_clk 16.090098
2 clknet_3_4__leaf_clk tx_body_active 0.007189
3 clknet_3_4__leaf_clk u_eop_detector\/_08_ 0.004628
4 clknet_3_4__leaf_clk u_eop_detector\/_09_ 0.041154
5 clknet_3_4__leaf_clk u_eop_detector\/_12_ 0.004628
6 clknet_3_4__leaf_clk u_eop_detector\/_15_ 0.003801
7 clknet_3_4__leaf_clk u_eop_detector\/_17_ 0.018511
8 clknet_3_4__leaf_clk u_eop_detector\/_18_ 0.004628
9 clknet_3_4__leaf_clk u_eop_detector\/_19_ 0.004628
10 clknet_3_4__leaf_clk u_eop_detector\/_21_ 0.000981
11 clknet_3_4__leaf_clk u_eop_detector\/se0_count[1] 0.009255
12 clknet_3_4__leaf_clk u_eop_detector\/se0_count[5] 0.004628
13 clknet_3_4__leaf_clk u_sync_detector\/_04_ 0.004628
*RES
1 clknet_3_4__leaf_clk clknet_3_4__leaf_clk:2 28.720200
2 clknet_3_4__leaf_clk clknet_3_4__leaf_clk:3 27.029300
3 clknet_3_4__leaf_clk clknet_3_4__leaf_clk:4 25.806100
4 clknet_3_4__leaf_clk clknet_3_4__leaf_clk:5 24.758000
5 clknet_3_4__leaf_clk clknet_3_4__leaf_clk:6 23.908100
6 clknet_3_4__leaf_clk clknet_3_4__leaf_clk:7 22.886000
7 clknet_3_4__leaf_clk clknet_3_4__leaf_clk:8 23.278000
8 clknet_3_4__leaf_clk clknet_3_4__leaf_clk:9 28.405000
9 clknet_3_4__leaf_clk clknet_3_4__leaf_clk:10 33.436900
10 clknet_3_4__leaf_clk clknet_3_4__leaf_clk:11 29.162500
11 clknet_3_4__leaf_clk clknet_3_4__leaf_clk:12 28.841500
12 clknet_3_4__leaf_clk clknet_3_4__leaf_clk:13 29.676600
13 clknet_3_4__leaf_clk clknet_3_4__leaf_clk:14 32.268400
14 clknet_3_4__leaf_clk clknet_3_4__leaf_clk:15 31.242600
15 clknet_3_4__leaf_clk clknet_3_4__leaf_clk:16 30.374100
16 clknet_3_4__leaf_clk clknet_3_4__leaf_clk:17 60.530400
17 clknet_3_4__leaf_clk clknet_3_4__leaf_clk:18 87.643700
18 clknet_3_4__leaf_clk clknet_3_4__leaf_clk:19 30.946100
19 clknet_3_4__leaf_clk clknet_3_4__leaf_clk:20 16.773000
20 clknet_3_4__leaf_clk clknet_3_4__leaf_clk:21 36.991500
21 clknet_3_4__leaf_clk clknet_3_4__leaf_clk:22 22.744200
22 clknet_3_4__leaf_clk clknet_3_4__leaf_clk:23 57.610500
23 clknet_3_4__leaf_clk clknet_3_4__leaf_clk:24 34.650700
24 clknet_3_4__leaf_clk clknet_3_4__leaf_clk:25 17.803000
25 clknet_3_4__leaf_clk clknet_3_4__leaf_clk:26 35.310300
26 clknet_3_4__leaf_clk clknet_3_4__leaf_clk:27 82.889200
27 clknet_3_4__leaf_clk clknet_3_4__leaf_clk:28 32.299000
28 clknet_3_4__leaf_clk clknet_3_4__leaf_clk:29 33.222300
29 clknet_3_4__leaf_clk clknet_3_4__leaf_clk:30 33.932600
30 clknet_3_4__leaf_clk clknet_3_4__leaf_clk:31 32.675000
31 clknet_3_4__leaf_clk clknet_3_4__leaf_clk:32 27.465300
32 clknet_3_4__leaf_clk clknet_3_4__leaf_clk:33 26.360600
33 clknet_3_4__leaf_clk clknet_3_4__leaf_clk:34 28.311200
34 clknet_3_4__leaf_clk clknet_3_4__leaf_clk:35 26.810400
35 clknet_3_4__leaf_clk clkload3:I 0.000000
36 clknet_3_4__leaf_clk u_encoder\/_6_:CLK 0.000000
37 clknet_3_4__leaf_clk u_eop_detector\/_56_:CLK 0.000000
38 clknet_3_4__leaf_clk u_eop_detector\/_61_:CLK 0.000000
39 clknet_3_4__leaf_clk u_stuffer\/_32_:CLK 0.000000
40 clknet_3_4__leaf_clk u_stuffer\/_33_:CLK 0.000000
41 clknet_3_4__leaf_clk clkbuf_3_4__f_clk:Z 0.000000
*END

*D_NET clknet_3_5__leaf_clk 19.645769
*CONN
*P clknet_3_5__leaf_clk B
*I clkload4:I B
*I _314_:CLK B
*I _315_:CLK B
*I _316_:CLK B
*I _344_:CLK B
*I _346_:CLK B
*I _348_:CLK B
*I u_stuffer\/_31_:CLK B
*I clkbuf_3_5__f_clk:Z B
*CAP
1 clknet_3_5__leaf_clk 19.550837
2 clknet_3_5__leaf_clk stuff_consume 0.013057
3 clknet_3_5__leaf_clk stuff_pending_after 0.004628
4 clknet_3_5__leaf_clk sync_idx[1] 0.010237
5 clknet_3_5__leaf_clk tx_body_active 0.013883
6 clknet_3_5__leaf_clk tx_state[2] 0.004628
7 clknet_3_5__leaf_clk tx_state[4] 0.009255
8 clknet_3_5__leaf_clk tx_state[6] 0.004628
9 clknet_3_5__leaf_clk u_stuffer\/_00_ 0.004628
10 clknet_3_5__leaf_clk u_stuffer\/_03_ 0.011053
11 clknet_3_5__leaf_clk u_stuffer\/_10_ 0.010182
12 clknet_3_5__leaf_clk u_stuffer\/_11_ 0.003801
13 clknet_3_5__leaf_clk u_stuffer\/run[1] 0.004952
*RES
1 clknet_3_5__leaf_clk clknet_3_5__leaf_clk:2 31.877800
2 clknet_3_5__leaf_clk clknet_3_5__leaf_clk:3 30.580300
3 clknet_3_5__leaf_clk clknet_3_5__leaf_clk:4 28.266500
4 clknet_3_5__leaf_clk clknet_3_5__leaf_clk:5 27.928600
5 clknet_3_5__leaf_clk clknet_3_5__leaf_clk:6 27.887200
6 clknet_3_5__leaf_clk clknet_3_5__leaf_clk:7 28.143400
7 clknet_3_5__leaf_clk clknet_3_5__leaf_clk:8 28.689400
8 clknet_3_5__leaf_clk clknet_3_5__leaf_clk:9 29.509000
9 clknet_3_5__leaf_clk clknet_3_5__leaf_clk:10 21.543000
10 clknet_3_5__leaf_clk clknet_3_5__leaf_clk:11 21.506500
11 clknet_3_5__leaf_clk clknet_3_5__leaf_clk:12 21.854800
12 clknet_3_5__leaf_clk clknet_3_5__leaf_clk:13 22.570000
13 clknet_3_5__leaf_clk clknet_3_5__leaf_clk:14 23.618800
14 clknet_3_5__leaf_clk clknet_3_5__leaf_clk:15 24.959300
15 clknet_3_5__leaf_clk clknet_3_5__leaf_clk:16 21.962300
16 clknet_3_5__leaf_clk clknet_3_5__leaf_clk:17 70.878600
17 clknet_3_5__leaf_clk clknet_3_5__leaf_clk:18 57.272200
18 clknet_3_5__leaf_clk clknet_3_5__leaf_clk:19 58.213700
19 clknet_3_5__leaf_clk clknet_3_5__leaf_clk:20 17.082000
20 clknet_3_5__leaf_clk clknet_3_5__leaf_clk:21 86.227700
21 clknet_3_5__leaf_clk clknet_3_5__leaf_clk:22 69.335700
22 clknet_3_5__leaf_clk clknet_3_5__leaf_clk:23 39.702100
23 clknet_3_5__leaf_clk clknet_3_5__leaf_clk:24 26.547200
24 clknet_3_5__leaf_clk clknet_3_5__leaf_clk:25 39.426900
25 clknet_3_5__leaf_clk clknet_3_5__leaf_clk:26 12.430400
26 clknet_3_5__leaf_clk clknet_3_5__leaf_clk:27 63.095300
27 clknet_3_5__leaf_clk clknet_3_5__leaf_clk:28 72.593100
28 clknet_3_5__leaf_clk clknet_3_5__leaf_clk:29 90.574000
29 clknet_3_5__leaf_clk clknet_3_5__leaf_clk:30 51.570200
30 clknet_3_5__leaf_clk clknet_3_5__leaf_clk:31 74.273900
31 clknet_3_5__leaf_clk clknet_3_5__leaf_clk:32 18.329400
32 clknet_3_5__leaf_clk clknet_3_5__leaf_clk:33 19.950500
33 clknet_3_5__leaf_clk clknet_3_5__leaf_clk:34 18.164400
34 clknet_3_5__leaf_clk clknet_3_5__leaf_clk:35 18.938300
35 clknet_3_5__leaf_clk clknet_3_5__leaf_clk:36 11.312900
36 clknet_3_5__leaf_clk clknet_3_5__leaf_clk:37 13.839300
37 clknet_3_5__leaf_clk clknet_3_5__leaf_clk:38 11.009800
38 clknet_3_5__leaf_clk clknet_3_5__leaf_clk:39 12.305200
39 clknet_3_5__leaf_clk clkload4:I 0.000000
40 clknet_3_5__leaf_clk _314_:CLK 0.000000
41 clknet_3_5__leaf_clk _315_:CLK 0.000000
42 clknet_3_5__leaf_clk _316_:CLK 0.000000
43 clknet_3_5__leaf_clk _344_:CLK 0.000000
44 clknet_3_5__leaf_clk _346_:CLK 0.000000
45 clknet_3_5__leaf_clk _348_:CLK 0.000000
46 clknet_3_5__leaf_clk u_stuffer\/_31_:CLK 0.000000
47 clknet_3_5__leaf_clk clkbuf_3_5__f_clk:Z 0.000000
*END

*D_NET clknet_3_6__leaf_clk 15.101019
*CONN
*P clknet_3_6__leaf_clk B
*I clkload5:I B
*I _306_:CLK B
*I _309_:CLK B
*I _310_:CLK B
*I _342_:CLK B
*I _343_:CLK B
*I _349_:CLK B
*I u_line_state\/_6_:CLK B
*I u_line_state\/_7_:CLK B
*I clkbuf_3_6__f_clk:Z B
*CAP
1 clknet_3_6__leaf_clk 15.023459
2 clknet_3_6__leaf_clk line_state[0] 0.009255
3 clknet_3_6__leaf_clk line_state[1] 0.011947
4 clknet_3_6__leaf_clk tx_state[1] 0.027766
5 clknet_3_6__leaf_clk tx_state[7] 0.010082
6 clknet_3_6__leaf_clk txdm 0.009255
7 clknet_3_6__leaf_clk txdp 0.009255
*RES
1 clknet_3_6__leaf_clk clknet_3_6__leaf_clk:2 35.775800
2 clknet_3_6__leaf_clk clknet_3_6__leaf_clk:3 31.015200
3 clknet_3_6__leaf_clk clknet_3_6__leaf_clk:4 29.430500
4 clknet_3_6__leaf_clk clknet_3_6__leaf_clk:5 32.842800
5 clknet_3_6__leaf_clk clknet_3_6__leaf_clk:6 39.624300
6 clknet_3_6__leaf_clk clknet_3_6__leaf_clk:7 36.820100
7 clknet_3_6__leaf_clk clknet_3_6__leaf_clk:8 38.111000
8 clknet_3_6__leaf_clk clknet_3_6__leaf_clk:9 79.276200
9 clknet_3_6__leaf_clk clknet_3_6__leaf_clk:10 51.979700
10 clknet_3_6__leaf_clk clknet_3_6__leaf_clk:11 32.183700
11 clknet_3_6__leaf_clk clknet_3_6__leaf_clk:12 47.790200
12 clknet_3_6__leaf_clk clknet_3_6__leaf_clk:13 14.096700
13 clknet_3_6__leaf_clk clknet_3_6__leaf_clk:14 29.996000
14 clknet_3_6__leaf_clk clknet_3_6__leaf_clk:15 62.625000
15 clknet_3_6__leaf_clk clknet_3_6__leaf_clk:16 72.889600
16 clknet_3_6__leaf_clk clknet_3_6__leaf_clk:17 28.129600
17 clknet_3_6__leaf_clk clknet_3_6__leaf_clk:18 26.601000
18 clknet_3_6__leaf_clk clknet_3_6__leaf_clk:19 79.200700
19 clknet_3_6__leaf_clk clknet_3_6__leaf_clk:20 53.341300
20 clknet_3_6__leaf_clk clknet_3_6__leaf_clk:21 19.656300
21 clknet_3_6__leaf_clk clknet_3_6__leaf_clk:22 56.252000
22 clknet_3_6__leaf_clk clknet_3_6__leaf_clk:23 57.276100
23 clknet_3_6__leaf_clk clknet_3_6__leaf_clk:24 28.795400
24 clknet_3_6__leaf_clk clknet_3_6__leaf_clk:25 72.963200
25 clknet_3_6__leaf_clk clknet_3_6__leaf_clk:26 5.934000
26 clknet_3_6__leaf_clk clknet_3_6__leaf_clk:27 10.660100
27 clknet_3_6__leaf_clk clknet_3_6__leaf_clk:28 5.231600
28 clknet_3_6__leaf_clk clknet_3_6__leaf_clk:29 7.998000
29 clknet_3_6__leaf_clk clknet_3_6__leaf_clk:30 9.846500
30 clknet_3_6__leaf_clk clknet_3_6__leaf_clk:31 4.081900
31 clknet_3_6__leaf_clk clknet_3_6__leaf_clk:32 2.808100
32 clknet_3_6__leaf_clk clknet_3_6__leaf_clk:33 6.808200
33 clknet_3_6__leaf_clk clkload5:I 0.000000
34 clknet_3_6__leaf_clk _306_:CLK 0.000000
35 clknet_3_6__leaf_clk _309_:CLK 0.000000
36 clknet_3_6__leaf_clk _310_:CLK 0.000000
37 clknet_3_6__leaf_clk _342_:CLK 0.000000
38 clknet_3_6__leaf_clk _343_:CLK 0.000000
39 clknet_3_6__leaf_clk _349_:CLK 0.000000
40 clknet_3_6__leaf_clk u_line_state\/_6_:CLK 0.000000
41 clknet_3_6__leaf_clk u_line_state\/_7_:CLK 0.000000
42 clknet_3_6__leaf_clk clkbuf_3_6__f_clk:Z 0.000000
*END

*D_NET clknet_3_7__leaf_clk 19.290890
*CONN
*P clknet_3_7__leaf_clk B
*I clkload6:I B
*I _305_:CLK B
*I _307_:CLK B
*I _308_:CLK B
*I _311_:CLK B
*I _312_:CLK B
*I _317_:CLK B
*I _318_:CLK B
*I _319_:CLK B
*I _337_:CLK B
*I clkbuf_3_7__f_clk:Z B
*CAP
1 clknet_3_7__leaf_clk 19.281635
2 clknet_3_7__leaf_clk tx_state[2] 0.009255
*RES
1 clknet_3_7__leaf_clk clknet_3_7__leaf_clk:2 32.602700
2 clknet_3_7__leaf_clk clknet_3_7__leaf_clk:3 25.604000
3 clknet_3_7__leaf_clk clknet_3_7__leaf_clk:4 27.498300
4 clknet_3_7__leaf_clk clknet_3_7__leaf_clk:5 23.779200
5 clknet_3_7__leaf_clk clknet_3_7__leaf_clk:6 27.614700
6 clknet_3_7__leaf_clk clknet_3_7__leaf_clk:7 29.192800
7 clknet_3_7__leaf_clk clknet_3_7__leaf_clk:8 30.860100
8 clknet_3_7__leaf_clk clknet_3_7__leaf_clk:9 14.755600
9 clknet_3_7__leaf_clk clknet_3_7__leaf_clk:10 54.919700
10 clknet_3_7__leaf_clk clknet_3_7__leaf_clk:11 44.994900
11 clknet_3_7__leaf_clk clknet_3_7__leaf_clk:12 53.996300
12 clknet_3_7__leaf_clk clknet_3_7__leaf_clk:13 20.589700
13 clknet_3_7__leaf_clk clknet_3_7__leaf_clk:14 63.642600
14 clknet_3_7__leaf_clk clknet_3_7__leaf_clk:15 89.091700
15 clknet_3_7__leaf_clk clknet_3_7__leaf_clk:16 54.526200
16 clknet_3_7__leaf_clk clknet_3_7__leaf_clk:17 32.000600
17 clknet_3_7__leaf_clk clknet_3_7__leaf_clk:18 29.448600
18 clknet_3_7__leaf_clk clknet_3_7__leaf_clk:19 50.551200
19 clknet_3_7__leaf_clk clknet_3_7__leaf_clk:20 55.970600
20 clknet_3_7__leaf_clk clknet_3_7__leaf_clk:21 36.665000
21 clknet_3_7__leaf_clk clknet_3_7__leaf_clk:22 46.700700
22 clknet_3_7__leaf_clk clknet_3_7__leaf_clk:23 53.641200
23 clknet_3_7__leaf_clk clknet_3_7__leaf_clk:24 23.557700
24 clknet_3_7__leaf_clk clknet_3_7__leaf_clk:25 60.393900
25 clknet_3_7__leaf_clk clknet_3_7__leaf_clk:26 12.461400
26 clknet_3_7__leaf_clk clknet_3_7__leaf_clk:27 85.350300
27 clknet_3_7__leaf_clk clknet_3_7__leaf_clk:28 16.155900
28 clknet_3_7__leaf_clk clknet_3_7__leaf_clk:29 20.732600
29 clknet_3_7__leaf_clk clknet_3_7__leaf_clk:30 13.867600
30 clknet_3_7__leaf_clk clknet_3_7__leaf_clk:31 18.444300
31 clknet_3_7__leaf_clk clknet_3_7__leaf_clk:32 17.232500
32 clknet_3_7__leaf_clk clknet_3_7__leaf_clk:33 21.603700
33 clknet_3_7__leaf_clk clknet_3_7__leaf_clk:34 15.092700
34 clknet_3_7__leaf_clk clknet_3_7__leaf_clk:35 19.406300
35 clknet_3_7__leaf_clk clkload6:I 0.000000
36 clknet_3_7__leaf_clk _305_:CLK 0.000000
37 clknet_3_7__leaf_clk _307_:CLK 0.000000
38 clknet_3_7__leaf_clk _308_:CLK 0.000000
39 clknet_3_7__leaf_clk _311_:CLK 0.000000
40 clknet_3_7__leaf_clk _312_:CLK 0.000000
41 clknet_3_7__leaf_clk _317_:CLK 0.000000
42 clknet_3_7__leaf_clk _318_:CLK 0.000000
43 clknet_3_7__leaf_clk _319_:CLK 0.000000
44 clknet_3_7__leaf_clk _337_:CLK 0.000000
45 clknet_3_7__leaf_clk clkbuf_3_7__f_clk:Z 0.000000
*END

*D_NET dec_bit_level 3.639514
*CONN
*P dec_bit_level B
*I u_decoder\/_08_:A1 B
*I u_decoder\/_07_:I0 B
*I _173_:ZN B
*CAP
1 dec_bit_level 3.608305
2 dec_bit_level rx_receiving 0.004628
3 dec_bit_level u_decoder\/_03_ 0.012709
4 dec_bit_level u_decoder\/_04_ 0.004628
5 dec_bit_level u_decoder\/prev_level 0.009244
*RES
1 dec_bit_level dec_bit_level:2 40.369000
2 dec_bit_level dec_bit_level:3 27.002100
3 dec_bit_level dec_bit_level:4 33.128000
4 dec_bit_level dec_bit_level:5 32.246400
5 dec_bit_level dec_bit_level:6 37.261200
6 dec_bit_level dec_bit_level:7 27.678800
7 dec_bit_level dec_bit_level:8 18.322700
8 dec_bit_level dec_bit_level:9 35.962900
9 dec_bit_level dec_bit_level:10 30.336900
10 dec_bit_level u_decoder\/_08_:A1 0.000000
11 dec_bit_level u_decoder\/_07_:I0 0.000000
12 dec_bit_level _173_:ZN 0.000000
*END

*D_NET dec_bit_strobe 6.142830
*CONN
*P dec_bit_strobe B
*I u_decoder\/_05_:A2 B
*I u_decoder\/_05_:A1 B
*I _174_:Z B
*CAP
1 dec_bit_strobe 6.090788
2 dec_bit_strobe line_state[0] 0.014742
3 dec_bit_strobe line_state[1] 0.017785
4 dec_bit_strobe rx_receiving 0.005289
5 dec_bit_strobe u_decoder\/_04_ 0.014226
*RES
1 dec_bit_strobe dec_bit_strobe:2 19.195300
2 dec_bit_strobe dec_bit_strobe:3 29.011400
3 dec_bit_strobe dec_bit_strobe:4 5.868200
4 dec_bit_strobe dec_bit_strobe:5 12.430300
5 dec_bit_strobe dec_bit_strobe:6 30.861800
6 dec_bit_strobe dec_bit_strobe:7 30.049500
7 dec_bit_strobe dec_bit_strobe:8 29.139400
8 dec_bit_strobe dec_bit_strobe:9 33.377500
9 dec_bit_strobe dec_bit_strobe:10 40.383000
10 dec_bit_strobe dec_bit_strobe:11 34.828300
11 dec_bit_strobe dec_bit_strobe:12 9.111700
12 dec_bit_strobe dec_bit_strobe:13 17.742700
13 dec_bit_strobe dec_bit_strobe:14 36.195400
14 dec_bit_strobe dec_bit_strobe:15 38.501400
15 dec_bit_strobe dec_bit_strobe:16 46.965700
16 dec_bit_strobe dec_bit_strobe:17 25.436100
17 dec_bit_strobe dec_bit_strobe:18 83.029800
18 dec_bit_strobe dec_bit_strobe:19 62.165800
19 dec_bit_strobe dec_bit_strobe:20 65.978100
20 dec_bit_strobe dec_bit_strobe:21 85.192300
21 dec_bit_strobe u_decoder\/_05_:A2 0.000000
22 dec_bit_strobe u_decoder\/_05_:A1 0.000000
23 dec_bit_strobe _174_:Z 0.000000
*END

*D_NET dec_data_bit 9.972950
*CONN
*P dec_data_bit B
*I u_sync_detector\/_18_:A2 B
*I u_destuffer\/_27_:I1 B
*I u_destuffer\/_21_:A2 B
*I u_destuffer\/_20_:A3 B
*I u_decoder\/_11_:Q B
*I u_decoder\/_09_:I1 B
*CAP
1 dec_data_bit 9.884097
2 dec_data_bit dec_data_strobe 0.009255
3 dec_data_bit rx_receiving 0.017684
4 dec_data_bit u_decoder\/_04_ 0.009255
5 dec_data_bit u_destuffer\/_00_ 0.013883
6 dec_data_bit u_destuffer\/_03_ 0.004628
7 dec_data_bit u_destuffer\/_06_ 0.004628
8 dec_data_bit u_destuffer\/_08_ 0.011705
9 dec_data_bit u_destuffer\/_09_ 0.004628
10 dec_data_bit u_destuffer\/_10_ 0.004758
11 dec_data_bit u_destuffer\/ones_run[0] 0.004628
12 dec_data_bit u_sync_detector\/_07_ 0.003801
*RES
1 dec_data_bit dec_data_bit:2 30.685100
2 dec_data_bit dec_data_bit:3 31.278300
3 dec_data_bit dec_data_bit:4 48.832300
4 dec_data_bit dec_data_bit:5 53.630500
5 dec_data_bit dec_data_bit:6 29.533200
6 dec_data_bit dec_data_bit:7 22.283500
7 dec_data_bit dec_data_bit:8 16.905900
8 dec_data_bit dec_data_bit:9 36.914600
9 dec_data_bit dec_data_bit:10 39.513100
10 dec_data_bit dec_data_bit:11 39.095700
11 dec_data_bit dec_data_bit:12 93.375000
12 dec_data_bit dec_data_bit:13 100.509000
13 dec_data_bit dec_data_bit:14 31.036700
14 dec_data_bit dec_data_bit:15 42.224100
15 dec_data_bit dec_data_bit:16 39.410300
16 dec_data_bit dec_data_bit:17 34.535200
17 dec_data_bit dec_data_bit:18 43.190600
18 dec_data_bit dec_data_bit:19 38.895200
19 dec_data_bit u_sync_detector\/_18_:A2 0.000000
20 dec_data_bit u_destuffer\/_27_:I1 0.000000
21 dec_data_bit u_destuffer\/_21_:A2 0.000000
22 dec_data_bit u_destuffer\/_20_:A3 0.000000
23 dec_data_bit u_decoder\/_11_:Q 0.000000
24 dec_data_bit u_decoder\/_09_:I1 0.000000
*END

*D_NET dec_data_strobe 14.643991
*CONN
*P dec_data_strobe B
*I u_sync_detector\/_30_:A2 B
*I u_sync_detector\/_27_:A2 B
*I u_sync_detector\/_22_:A2 B
*I u_sync_detector\/_18_:A1 B
*I u_destuffer\/_30_:A1 B
*I u_destuffer\/_20_:A1 B
*I u_destuffer\/_18_:I B
*I u_decoder\/_12_:Q B
*CAP
1 dec_data_strobe 14.467686
2 dec_data_strobe rx_receiving 0.022395
3 dec_data_strobe u_destuffer\/_08_ 0.008677
4 dec_data_strobe u_destuffer\/_12_ 0.012230
5 dec_data_strobe u_destuffer\/ones_run[0] 0.009255
6 dec_data_strobe u_sync_detector\/_01_ 0.001653
7 dec_data_strobe u_sync_detector\/_02_ 0.011947
8 dec_data_strobe u_sync_detector\/_03_ 0.004628
9 dec_data_strobe u_sync_detector\/_05_ 0.001192
10 dec_data_strobe u_sync_detector\/_06_ 0.008429
11 dec_data_strobe u_sync_detector\/_07_ 0.017684
12 dec_data_strobe u_sync_detector\/_09_ 0.004628
13 dec_data_strobe u_sync_detector\/_10_ 0.004628
14 dec_data_strobe u_sync_detector\/_13_ 0.004628
15 dec_data_strobe u_sync_detector\/_14_ 0.028135
16 dec_data_strobe u_sync_detector\/_15_ 0.004628
17 dec_data_strobe u_sync_detector\/match[0] 0.014710
18 dec_data_strobe u_sync_detector\/match[1] 0.008429
19 dec_data_strobe u_sync_detector\/match[2] 0.008429
*RES
1 dec_data_strobe dec_data_strobe:2 91.702700
2 dec_data_strobe dec_data_strobe:3 39.352500
3 dec_data_strobe dec_data_strobe:4 43.991200
4 dec_data_strobe dec_data_strobe:5 20.648400
5 dec_data_strobe dec_data_strobe:6 23.453200
6 dec_data_strobe dec_data_strobe:7 38.585800
7 dec_data_strobe dec_data_strobe:8 37.817700
8 dec_data_strobe dec_data_strobe:9 55.425600
9 dec_data_strobe dec_data_strobe:10 44.863400
10 dec_data_strobe dec_data_strobe:11 45.504200
11 dec_data_strobe dec_data_strobe:12 35.734000
12 dec_data_strobe dec_data_strobe:13 33.355900
13 dec_data_strobe dec_data_strobe:14 26.536400
14 dec_data_strobe dec_data_strobe:15 24.417000
15 dec_data_strobe dec_data_strobe:16 30.659800
16 dec_data_strobe dec_data_strobe:17 98.998000
17 dec_data_strobe dec_data_strobe:18 33.472900
18 dec_data_strobe dec_data_strobe:19 54.547000
19 dec_data_strobe dec_data_strobe:20 50.635800
20 dec_data_strobe dec_data_strobe:21 45.932400
21 dec_data_strobe dec_data_strobe:22 38.000000
22 dec_data_strobe dec_data_strobe:23 48.809400
23 dec_data_strobe dec_data_strobe:24 43.554600
24 dec_data_strobe dec_data_strobe:25 32.835600
25 dec_data_strobe u_sync_detector\/_30_:A2 0.000000
26 dec_data_strobe u_sync_detector\/_27_:A2 0.000000
27 dec_data_strobe u_sync_detector\/_22_:A2 0.000000
28 dec_data_strobe u_sync_detector\/_18_:A1 0.000000
29 dec_data_strobe u_destuffer\/_30_:A1 0.000000
30 dec_data_strobe u_destuffer\/_20_:A1 0.000000
31 dec_data_strobe u_destuffer\/_18_:I 0.000000
32 dec_data_strobe u_decoder\/_12_:Q 0.000000
*END

*D_NET entering_sync 8.992415
*CONN
*P entering_sync B
*I u_encoder\/_3_:A3 B
*I _258_:A2 B
*I _190_:A2 B
*I _164_:ZN B
*CAP
1 entering_sync 8.936683
2 entering_sync line_state[0] 0.004628
3 entering_sync nrzi_level 0.004628
4 entering_sync raw_mode 0.004628
5 entering_sync stuff_consume 0.004628
6 entering_sync stuff_pending_after 0.004628
7 entering_sync tx_state[2] 0.008429
8 entering_sync tx_state[4] 0.013883
9 entering_sync u_encoder\/_1_ 0.010280
*RES
1 entering_sync entering_sync:2 74.287000
2 entering_sync entering_sync:3 75.266100
3 entering_sync entering_sync:4 62.289200
4 entering_sync entering_sync:5 38.166600
5 entering_sync entering_sync:6 30.046600
6 entering_sync entering_sync:7 32.053900
7 entering_sync entering_sync:8 40.226800
8 entering_sync entering_sync:9 13.619700
9 entering_sync entering_sync:10 62.279200
10 entering_sync entering_sync:11 8.393700
11 entering_sync entering_sync:12 38.944900
12 entering_sync entering_sync:13 36.818600
13 entering_sync entering_sync:14 28.343600
14 entering_sync entering_sync:15 30.456500
15 entering_sync u_encoder\/_3_:A3 0.000000
16 entering_sync _258_:A2 0.000000
17 entering_sync _190_:A2 0.000000
18 entering_sync _164_:ZN 0.000000
*END

*D_NET eop_pulse 1.415068
*CONN
*P eop_pulse B
*I u_eop_detector\/_55_:Q B
*I _290_:A2 B
*CAP
1 eop_pulse 1.415068
*RES
1 eop_pulse eop_pulse:2 10.795700
2 eop_pulse eop_pulse:3 31.738700
3 eop_pulse eop_pulse:4 32.861700
4 eop_pulse eop_pulse:5 9.870600
5 eop_pulse u_eop_detector\/_55_:Q 0.000000
6 eop_pulse _290_:A2 0.000000
*END

*D_NET first_byte 2.713329
*CONN
*P first_byte B
*I _337_:Q B
*I _262_:I B
*I _202_:A1 B
*CAP
1 first_byte 2.707875
2 first_byte tx_state[2] 0.005454
*RES
1 first_byte first_byte:2 14.041300
2 first_byte first_byte:3 30.906800
3 first_byte first_byte:4 19.992800
4 first_byte first_byte:5 51.511000
5 first_byte first_byte:6 27.455300
6 first_byte first_byte:7 37.910400
7 first_byte _337_:Q 0.000000
8 first_byte _262_:I 0.000000
9 first_byte _202_:A1 0.000000
*END

*D_NET line_state\[0\] 10.587587
*CONN
*P line_state\[0\] B
*I u_line_state\/_6_:Q B
*I u_eop_detector\/_27_:A1 B
*I _174_:A1 B
*I _172_:I B
*CAP
1 line_state[0] 10.528253
2 line_state[0] line_state[1] 0.018511
3 line_state[0] nrzi_level 0.009255
4 line_state[0] rxdp 0.004628
5 line_state[0] tx_state[1] 0.004628
6 line_state[0] tx_state[7] 0.004628
7 line_state[0] txdm 0.009255
8 line_state[0] u_encoder\/_1_ 0.004628
9 line_state[0] u_eop_detector\/_08_ 0.003801
*RES
1 line_state[0] line_state\[0\]:2 24.889300
2 line_state[0] line_state\[0\]:3 28.089500
3 line_state[0] line_state\[0\]:4 29.280700
4 line_state[0] line_state\[0\]:5 21.918800
5 line_state[0] line_state\[0\]:6 17.266100
6 line_state[0] line_state\[0\]:7 32.742700
7 line_state[0] line_state\[0\]:8 102.170900
8 line_state[0] line_state\[0\]:9 39.156000
9 line_state[0] line_state\[0\]:10 12.685900
10 line_state[0] line_state\[0\]:11 95.927300
11 line_state[0] u_line_state\/_6_:Q 0.000000
12 line_state[0] u_eop_detector\/_27_:A1 0.000000
13 line_state[0] _174_:A1 0.000000
14 line_state[0] _172_:I 0.000000
*END

*D_NET line_state\[1\] 11.281920
*CONN
*P line_state\[1\] B
*I u_line_state\/_7_:Q B
*I u_eop_detector\/_27_:A2 B
*I _174_:A2 B
*I _173_:A2 B
*CAP
1 line_state[1] 11.254153
2 line_state[1] nrzi_level 0.004628
3 line_state[1] rxdp 0.004628
4 line_state[1] tx_state[1] 0.004628
5 line_state[1] tx_state[7] 0.004628
6 line_state[1] txdm 0.009255
*RES
1 line_state[1] line_state\[1\]:2 24.636200
2 line_state[1] line_state\[1\]:3 21.284600
3 line_state[1] line_state\[1\]:4 22.199000
4 line_state[1] line_state\[1\]:5 17.089800
5 line_state[1] line_state\[1\]:6 103.291900
6 line_state[1] line_state\[1\]:7 31.715600
7 line_state[1] line_state\[1\]:8 33.970700
8 line_state[1] line_state\[1\]:9 98.231500
9 line_state[1] line_state\[1\]:10 26.502600
10 line_state[1] line_state\[1\]:11 29.163700
11 line_state[1] u_line_state\/_7_:Q 0.000000
12 line_state[1] u_eop_detector\/_27_:A2 0.000000
13 line_state[1] _174_:A2 0.000000
14 line_state[1] _173_:A2 0.000000
*END

*D_NET nrzi_level 9.282367
*CONN
*P nrzi_level B
*I u_encoder\/_6_:Q B
*I u_encoder\/_5_:I0 B
*I u_encoder\/_3_:A2 B
*I _180_:A2 B
*I _179_:A2 B
*CAP
1 nrzi_level 9.251805
2 nrzi_level tx_state[1] 0.004628
3 nrzi_level txdm 0.008429
4 nrzi_level u_encoder\/_1_ 0.012877
5 nrzi_level u_encoder\/_2_ 0.004628
*RES
1 nrzi_level nrzi_level:2 84.831600
2 nrzi_level nrzi_level:3 75.801800
3 nrzi_level nrzi_level:4 62.379900
4 nrzi_level nrzi_level:5 8.824300
5 nrzi_level nrzi_level:6 14.905800
6 nrzi_level nrzi_level:7 18.039900
7 nrzi_level nrzi_level:8 68.671400
8 nrzi_level nrzi_level:9 59.727600
9 nrzi_level nrzi_level:10 76.327400
10 nrzi_level nrzi_level:11 52.484000
11 nrzi_level nrzi_level:12 28.296100
12 nrzi_level nrzi_level:13 11.952600
13 nrzi_level nrzi_level:14 15.649000
14 nrzi_level nrzi_level:15 1.497900
15 nrzi_level nrzi_level:16 66.356700
16 nrzi_level nrzi_level:17 26.766100
17 nrzi_level u_encoder\/_6_:Q 0.000000
18 nrzi_level u_encoder\/_5_:I0 0.000000
19 nrzi_level u_encoder\/_3_:A2 0.000000
20 nrzi_level _180_:A2 0.000000
21 nrzi_level _179_:A2 0.000000
*END

*D_NET raw_mode 6.891347
*CONN
*P raw_mode B
*I u_stuffer\/_21_:I B
*I u_stuffer\/_15_:A1 B
*I _193_:ZN B
*CAP
1 raw_mode 6.836846
2 raw_mode stuff_consume 0.004628
3 raw_mode stuff_pending_after 0.013057
4 raw_mode tx_body_active 0.004628
5 raw_mode u_encoder\/_2_ 0.024172
6 raw_mode u_stuffer\/_04_ 0.003801
7 raw_mode u_stuffer\/_08_ 0.004215
*RES
1 raw_mode raw_mode:2 16.661600
2 raw_mode raw_mode:3 18.229700
3 raw_mode raw_mode:4 17.712600
4 raw_mode raw_mode:5 25.750200
5 raw_mode raw_mode:6 28.755900
6 raw_mode raw_mode:7 70.258100
7 raw_mode raw_mode:8 31.954100
8 raw_mode raw_mode:9 25.172200
9 raw_mode raw_mode:10 26.273800
10 raw_mode raw_mode:11 34.422300
11 raw_mode raw_mode:12 22.925700
12 raw_mode raw_mode:13 64.144200
13 raw_mode raw_mode:14 66.981000
14 raw_mode u_stuffer\/_21_:I 0.000000
15 raw_mode u_stuffer\/_15_:A1 0.000000
16 raw_mode _193_:ZN 0.000000
*END

*D_NET rst_n 2.017844
*CONN
*P rst_n B
*I _150_:A1 B
*CAP
1 rst_n 2.004803
2 rst_n rxdm 0.003785
3 rst_n rxdp 0.004628
4 rst_n txdm 0.004628
*RES
1 rst_n rst_n:2 41.891000
2 rst_n rst_n:3 41.891000
3 rst_n rst_n:4 42.376600
4 rst_n rst_n:5 42.376600
5 rst_n _150_:A1 0.000000
*END

*D_NET rx_assembly_en 4.555225
*CONN
*P rx_assembly_en B
*I _329_:Q B
*I _206_:A2 B
*I _204_:A2 B
*CAP
1 rx_assembly_en 4.552465
2 rx_assembly_en rx_bit_valid 0.002760
*RES
1 rx_assembly_en rx_assembly_en:2 9.868300
2 rx_assembly_en rx_assembly_en:3 21.425500
3 rx_assembly_en rx_assembly_en:4 23.279000
4 rx_assembly_en rx_assembly_en:5 62.455400
5 rx_assembly_en rx_assembly_en:6 44.705400
6 rx_assembly_en rx_assembly_en:7 34.011800
7 rx_assembly_en rx_assembly_en:8 73.347800
8 rx_assembly_en rx_assembly_en:9 13.324300
9 rx_assembly_en _329_:Q 0.000000
10 rx_assembly_en _206_:A2 0.000000
11 rx_assembly_en _204_:A2 0.000000
*END

*D_NET rx_bit_valid 3.757630
*CONN
*P rx_bit_valid B
*I u_destuffer\/_36_:Q B
*I _206_:A1 B
*I _204_:A1 B
*CAP
1 rx_bit_valid 3.757630
*RES
1 rx_bit_valid rx_bit_valid:2 23.724500
2 rx_bit_valid rx_bit_valid:3 23.723700
3 rx_bit_valid rx_bit_valid:4 37.623300
4 rx_bit_valid rx_bit_valid:5 37.611700
5 rx_bit_valid rx_bit_valid:6 61.568700
6 rx_bit_valid rx_bit_valid:7 74.633800
7 rx_bit_valid rx_bit_valid:8 13.767400
8 rx_bit_valid rx_bit_valid:9 0.254200
9 rx_bit_valid u_destuffer\/_36_:Q 0.000000
10 rx_bit_valid _206_:A1 0.000000
11 rx_bit_valid _204_:A1 0.000000
*END

*D_NET rx_bitcnt\[0\] 5.672056
*CONN
*P rx_bitcnt\[0\] B
*I _338_:Q B
*I _300_:A1 B
*I _267_:A1 B
*I _217_:A2 B
*CAP
1 rx_bitcnt[0] 5.658999
2 rx_bitcnt[0] rx_bitcnt[1] 0.013057
*RES
1 rx_bitcnt[0] rx_bitcnt\[0\]:2 53.758400
2 rx_bitcnt[0] rx_bitcnt\[0\]:3 43.053300
3 rx_bitcnt[0] rx_bitcnt\[0\]:4 53.145900
4 rx_bitcnt[0] rx_bitcnt\[0\]:5 43.132000
5 rx_bitcnt[0] rx_bitcnt\[0\]:6 49.409000
6 rx_bitcnt[0] rx_bitcnt\[0\]:7 38.014300
7 rx_bitcnt[0] rx_bitcnt\[0\]:8 29.548700
8 rx_bitcnt[0] rx_bitcnt\[0\]:9 38.487700
9 rx_bitcnt[0] rx_bitcnt\[0\]:10 31.945100
10 rx_bitcnt[0] rx_bitcnt\[0\]:11 29.597000
11 rx_bitcnt[0] rx_bitcnt\[0\]:12 45.604800
12 rx_bitcnt[0] rx_bitcnt\[0\]:13 17.470900
13 rx_bitcnt[0] _338_:Q 0.000000
14 rx_bitcnt[0] _300_:A1 0.000000
15 rx_bitcnt[0] _267_:A1 0.000000
16 rx_bitcnt[0] _217_:A2 0.000000
*END

*D_NET rx_bitcnt\[1\] 2.841678
*CONN
*P rx_bitcnt\[1\] B
*I _339_:Q B
*I _300_:B B
*I _217_:A1 B
*CAP
1 rx_bitcnt[1] 2.841678
*RES
1 rx_bitcnt[1] rx_bitcnt\[1\]:2 6.424400
2 rx_bitcnt[1] rx_bitcnt\[1\]:3 17.185800
3 rx_bitcnt[1] rx_bitcnt\[1\]:4 33.562800
4 rx_bitcnt[1] rx_bitcnt\[1\]:5 29.111400
5 rx_bitcnt[1] rx_bitcnt\[1\]:6 46.877900
6 rx_bitcnt[1] rx_bitcnt\[1\]:7 59.193500
7 rx_bitcnt[1] rx_bitcnt\[1\]:8 39.274000
8 rx_bitcnt[1] rx_bitcnt\[1\]:9 31.552000
9 rx_bitcnt[1] _339_:Q 0.000000
10 rx_bitcnt[1] _300_:B 0.000000
11 rx_bitcnt[1] _217_:A1 0.000000
*END

*D_NET rx_bitcnt\[2\] 4.702289
*CONN
*P rx_bitcnt\[2\] B
*I _340_:Q B
*I _272_:A1 B
*I _271_:A1 B
*I _218_:A2 B
*CAP
1 rx_bitcnt[2] 4.693860
2 rx_bitcnt[2] rx_receiving 0.008429
*RES
1 rx_bitcnt[2] rx_bitcnt\[2\]:2 62.217900
2 rx_bitcnt[2] rx_bitcnt\[2\]:3 45.697600
3 rx_bitcnt[2] rx_bitcnt\[2\]:4 43.095100
4 rx_bitcnt[2] rx_bitcnt\[2\]:5 44.707100
5 rx_bitcnt[2] rx_bitcnt\[2\]:6 30.777200
6 rx_bitcnt[2] rx_bitcnt\[2\]:7 28.189300
7 rx_bitcnt[2] rx_bitcnt\[2\]:8 22.525500
8 rx_bitcnt[2] rx_bitcnt\[2\]:9 46.296500
9 rx_bitcnt[2] rx_bitcnt\[2\]:10 15.933400
10 rx_bitcnt[2] rx_bitcnt\[2\]:11 36.135600
11 rx_bitcnt[2] _340_:Q 0.000000
12 rx_bitcnt[2] _272_:A1 0.000000
13 rx_bitcnt[2] _271_:A1 0.000000
14 rx_bitcnt[2] _218_:A2 0.000000
*END

*D_NET rx_out_bit 7.230818
*CONN
*P rx_out_bit B
*I u_destuffer\/_32_:Q B
*I u_destuffer\/_27_:I0 B
*I _232_:A1 B
*I _220_:I1 B
*CAP
1 rx_out_bit 7.221562
2 rx_out_bit rx_shift[6] 0.004628
3 rx_out_bit rx_stuff_err 0.004628
*RES
1 rx_out_bit rx_out_bit:2 50.000700
2 rx_out_bit rx_out_bit:3 56.115700
3 rx_out_bit rx_out_bit:4 43.772700
4 rx_out_bit rx_out_bit:5 38.537000
5 rx_out_bit rx_out_bit:6 39.056500
6 rx_out_bit rx_out_bit:7 33.462500
7 rx_out_bit rx_out_bit:8 20.278600
8 rx_out_bit rx_out_bit:9 14.643700
9 rx_out_bit u_destuffer\/_32_:Q 0.000000
10 rx_out_bit u_destuffer\/_27_:I0 0.000000
11 rx_out_bit _232_:A1 0.000000
12 rx_out_bit _220_:I1 0.000000
*END

*D_NET rx_receiving 28.856674
*CONN
*P rx_receiving B
*I u_destuffer\/_24_:A2 B
*I u_destuffer\/_22_:A2 B
*I u_destuffer\/_21_:A1 B
*I u_destuffer\/_20_:A2 B
*I u_destuffer\/_19_:A1 B
*I _341_:Q B
*I _271_:C B
*I _218_:A1 B
*I _209_:A1 B
*I _148_:I B
*CAP
1 rx_receiving 28.737659
2 rx_receiving tx_state[1] 0.004628
3 rx_receiving tx_state[5] 0.000826
4 rx_receiving u_decoder\/_02_ 0.004628
5 rx_receiving u_decoder\/_04_ 0.008429
6 rx_receiving u_decoder\/prev_level 0.004628
7 rx_receiving u_destuffer\/_00_ 0.004049
8 rx_receiving u_destuffer\/_06_ 0.020907
9 rx_receiving u_destuffer\/_07_ 0.015422
10 rx_receiving u_destuffer\/_08_ 0.032394
11 rx_receiving u_destuffer\/_09_ 0.004628
12 rx_receiving u_destuffer\/_10_ 0.005419
13 rx_receiving u_destuffer\/_11_ 0.004628
14 rx_receiving u_destuffer\/_12_ 0.008429
*RES
1 rx_receiving rx_receiving:2 59.465300
2 rx_receiving rx_receiving:3 52.790500
3 rx_receiving rx_receiving:4 8.160700
4 rx_receiving rx_receiving:5 35.131100
5 rx_receiving rx_receiving:6 69.488000
6 rx_receiving rx_receiving:7 69.981200
7 rx_receiving rx_receiving:8 22.655000
8 rx_receiving rx_receiving:9 16.790700
9 rx_receiving rx_receiving:10 10.801300
10 rx_receiving rx_receiving:11 10.169200
11 rx_receiving rx_receiving:12 61.240100
12 rx_receiving rx_receiving:13 74.976400
13 rx_receiving rx_receiving:14 74.836200
14 rx_receiving rx_receiving:15 21.596500
15 rx_receiving rx_receiving:16 81.781600
16 rx_receiving rx_receiving:17 28.441100
17 rx_receiving rx_receiving:18 14.093000
18 rx_receiving rx_receiving:19 6.937100
19 rx_receiving rx_receiving:20 4.314700
20 rx_receiving rx_receiving:21 6.397300
21 rx_receiving rx_receiving:22 55.789700
22 rx_receiving rx_receiving:23 54.893200
23 rx_receiving rx_receiving:24 4.789200
24 rx_receiving rx_receiving:25 28.175200
25 rx_receiving rx_receiving:26 9.746100
26 rx_receiving rx_receiving:27 11.482000
27 rx_receiving rx_receiving:28 62.137700
28 rx_receiving rx_receiving:29 63.605200
29 rx_receiving rx_receiving:30 81.640600
30 rx_receiving rx_receiving:31 64.196200
31 rx_receiving rx_receiving:32 64.811900
32 rx_receiving rx_receiving:33 113.553500
33 rx_receiving rx_receiving:34 11.237700
34 rx_receiving rx_receiving:35 117.595700
35 rx_receiving rx_receiving:36 59.003500
36 rx_receiving rx_receiving:37 109.295000
37 rx_receiving rx_receiving:38 121.172400
38 rx_receiving rx_receiving:39 23.223300
39 rx_receiving u_destuffer\/_24_:A2 0.000000
40 rx_receiving u_destuffer\/_22_:A2 0.000000
41 rx_receiving u_destuffer\/_21_:A1 0.000000
42 rx_receiving u_destuffer\/_20_:A2 0.000000
43 rx_receiving u_destuffer\/_19_:A1 0.000000
44 rx_receiving _341_:Q 0.000000
45 rx_receiving _271_:C 0.000000
46 rx_receiving _218_:A1 0.000000
47 rx_receiving _209_:A1 0.000000
48 rx_receiving _148_:I 0.000000
*END

*D_NET rx_shift\[1\] 2.603648
*CONN
*P rx_shift\[1\] B
*I _330_:Q B
*I _288_:I1 B
*I _252_:A1 B
*CAP
1 rx_shift[1] 2.585137
2 rx_shift[1] rx_shift[2] 0.018511
*RES
1 rx_shift[1] rx_shift\[1\]:2 52.493000
2 rx_shift[1] rx_shift\[1\]:3 37.567600
3 rx_shift[1] rx_shift\[1\]:4 42.517000
4 rx_shift[1] rx_shift\[1\]:5 28.014900
5 rx_shift[1] rx_shift\[1\]:6 17.324200
6 rx_shift[1] rx_shift\[1\]:7 3.162300
7 rx_shift[1] _330_:Q 0.000000
8 rx_shift[1] _288_:I1 0.000000
9 rx_shift[1] _252_:A1 0.000000
*END

*D_NET rx_shift\[2\] 4.774124
*CONN
*P rx_shift\[2\] B
*I _331_:Q B
*I _287_:I1 B
*I _253_:A1 B
*I _249_:A1 B
*CAP
1 rx_shift[2] 4.774124
*RES
1 rx_shift[2] rx_shift\[2\]:2 28.536500
2 rx_shift[2] rx_shift\[2\]:3 23.297900
3 rx_shift[2] rx_shift\[2\]:4 44.584100
4 rx_shift[2] rx_shift\[2\]:5 57.837700
5 rx_shift[2] rx_shift\[2\]:6 49.085900
6 rx_shift[2] rx_shift\[2\]:7 35.030600
7 rx_shift[2] rx_shift\[2\]:8 27.790700
8 rx_shift[2] rx_shift\[2\]:9 17.889300
9 rx_shift[2] _331_:Q 0.000000
10 rx_shift[2] _287_:I1 0.000000
11 rx_shift[2] _253_:A1 0.000000
12 rx_shift[2] _249_:A1 0.000000
*END

*D_NET rx_shift\[3\] 5.070567
*CONN
*P rx_shift\[3\] B
*I _332_:Q B
*I _286_:I1 B
*I _250_:A1 B
*I _246_:A1 B
*CAP
1 rx_shift[3] 5.065939
2 rx_shift[3] rx_shift[4] 0.004628
*RES
1 rx_shift[3] rx_shift\[3\]:2 51.688100
2 rx_shift[3] rx_shift\[3\]:3 59.959300
3 rx_shift[3] rx_shift\[3\]:4 40.268300
4 rx_shift[3] rx_shift\[3\]:5 16.344600
5 rx_shift[3] rx_shift\[3\]:6 37.832000
6 rx_shift[3] rx_shift\[3\]:7 8.125000
7 rx_shift[3] rx_shift\[3\]:8 39.371700
8 rx_shift[3] rx_shift\[3\]:9 32.125000
9 rx_shift[3] _332_:Q 0.000000
10 rx_shift[3] _286_:I1 0.000000
11 rx_shift[3] _250_:A1 0.000000
12 rx_shift[3] _246_:A1 0.000000
*END

*D_NET rx_shift\[4\] 4.896027
*CONN
*P rx_shift\[4\] B
*I _333_:Q B
*I _277_:I1 B
*I _247_:A1 B
*I _243_:A1 B
*CAP
1 rx_shift[4] 4.886772
2 rx_shift[4] rx_shift[5] 0.009255
*RES
1 rx_shift[4] rx_shift\[4\]:2 64.356800
2 rx_shift[4] rx_shift\[4\]:3 55.487500
3 rx_shift[4] rx_shift\[4\]:4 50.721200
4 rx_shift[4] rx_shift\[4\]:5 16.594800
5 rx_shift[4] rx_shift\[4\]:6 43.715300
6 rx_shift[4] rx_shift\[4\]:7 25.155000
7 rx_shift[4] rx_shift\[4\]:8 14.504900
8 rx_shift[4] rx_shift\[4\]:9 14.024100
9 rx_shift[4] _333_:Q 0.000000
10 rx_shift[4] _277_:I1 0.000000
11 rx_shift[4] _247_:A1 0.000000
12 rx_shift[4] _243_:A1 0.000000
*END

*D_NET rx_shift\[5\] 5.040878
*CONN
*P rx_shift\[5\] B
*I _334_:Q B
*I _273_:I1 B
*I _244_:A1 B
*I _205_:A1 B
*CAP
1 rx_shift[5] 5.022367
2 rx_shift[5] rx_shift[6] 0.018511
*RES
1 rx_shift[5] rx_shift\[5\]:2 41.892200
2 rx_shift[5] rx_shift\[5\]:3 46.829600
3 rx_shift[5] rx_shift\[5\]:4 20.623700
4 rx_shift[5] rx_shift\[5\]:5 46.710200
5 rx_shift[5] rx_shift\[5\]:6 27.130900
6 rx_shift[5] rx_shift\[5\]:7 50.016100
7 rx_shift[5] rx_shift\[5\]:8 24.495200
8 rx_shift[5] rx_shift\[5\]:9 27.904600
9 rx_shift[5] _334_:Q 0.000000
10 rx_shift[5] _273_:I1 0.000000
11 rx_shift[5] _244_:A1 0.000000
12 rx_shift[5] _205_:A1 0.000000
*END

*D_NET rx_shift\[6\] 7.089296
*CONN
*P rx_shift\[6\] B
*I _335_:Q B
*I _302_:A1 B
*I _270_:I1 B
*I _208_:A1 B
*CAP
1 rx_shift[6] 7.089296
*RES
1 rx_shift[6] rx_shift\[6\]:2 44.540700
2 rx_shift[6] rx_shift\[6\]:3 39.575900
3 rx_shift[6] rx_shift\[6\]:4 25.590800
4 rx_shift[6] rx_shift\[6\]:5 21.285900
5 rx_shift[6] rx_shift\[6\]:6 22.527200
6 rx_shift[6] rx_shift\[6\]:7 17.447000
7 rx_shift[6] rx_shift\[6\]:8 59.329600
8 rx_shift[6] rx_shift\[6\]:9 65.147400
9 rx_shift[6] _335_:Q 0.000000
10 rx_shift[6] _302_:A1 0.000000
11 rx_shift[6] _270_:I1 0.000000
12 rx_shift[6] _208_:A1 0.000000
*END

*D_NET rx_shift\[7\] 4.514720
*CONN
*P rx_shift\[7\] B
*I _336_:Q B
*I _303_:A1 B
*I _269_:I1 B
*I _231_:A1 B
*CAP
1 rx_shift[7] 4.514720
*RES
1 rx_shift[7] rx_shift\[7\]:2 50.865000
2 rx_shift[7] rx_shift\[7\]:3 55.909200
3 rx_shift[7] rx_shift\[7\]:4 37.134000
4 rx_shift[7] rx_shift\[7\]:5 24.976900
5 rx_shift[7] rx_shift\[7\]:6 37.561800
6 rx_shift[7] rx_shift\[7\]:7 25.502100
7 rx_shift[7] rx_shift\[7\]:8 20.571100
8 rx_shift[7] rx_shift\[7\]:9 30.731900
9 rx_shift[7] _336_:Q 0.000000
10 rx_shift[7] _303_:A1 0.000000
11 rx_shift[7] _269_:I1 0.000000
12 rx_shift[7] _231_:A1 0.000000
*END

*D_NET rx_stuff_err 2.005765
*CONN
*P rx_stuff_err B
*I u_destuffer\/_37_:Q B
*I _289_:A1 B
*CAP
1 rx_stuff_err 2.005765
*RES
1 rx_stuff_err rx_stuff_err:2 27.282700
2 rx_stuff_err rx_stuff_err:3 18.456100
3 rx_stuff_err rx_stuff_err:4 18.721600
4 rx_stuff_err rx_stuff_err:5 27.018300
5 rx_stuff_err u_destuffer\/_37_:Q 0.000000
6 rx_stuff_err _289_:A1 0.000000
*END

*D_NET rxdm 3.250804
*CONN
*P rxdm B
*I u_line_state\/_5_:A2 B
*CAP
1 rxdm 3.225268
2 rxdm rxdp 0.004628
3 rxdm txdm 0.004628
4 rxdm txdp 0.011652
5 rxdm u_line_state\/_2_ 0.004628
*RES
1 rxdm rxdm:2 46.556100
2 rxdm rxdm:3 45.753000
3 rxdm rxdm:4 46.556100
4 rxdm rxdm:5 45.753000
5 rxdm u_line_state\/_5_:A2 0.000000
*END

*D_NET rxdp 2.196410
*CONN
*P rxdp B
*I u_line_state\/_3_:I B
*CAP
1 rxdp 2.180198
2 rxdp txdm 0.007272
3 rxdp u_line_state\/_2_ 0.008940
*RES
1 rxdp rxdp:2 41.142300
2 rxdp rxdp:3 40.621400
3 rxdp rxdp:4 40.621400
4 rxdp rxdp:5 41.142300
5 rxdp u_line_state\/_3_:I 0.000000
*END

*D_NET stuff_bit_out 1.806931
*CONN
*P stuff_bit_out B
*I u_stuffer\/_17_:Z B
*I _191_:I1 B
*CAP
1 stuff_bit_out 1.802303
2 stuff_bit_out stuff_consume 0.004628
*RES
1 stuff_bit_out stuff_bit_out:2 23.122200
2 stuff_bit_out stuff_bit_out:3 28.644000
3 stuff_bit_out stuff_bit_out:4 29.316600
4 stuff_bit_out stuff_bit_out:5 22.578900
5 stuff_bit_out u_stuffer\/_17_:Z 0.000000
6 stuff_bit_out _191_:I1 0.000000
*END

*D_NET stuff_consume 20.679406
*CONN
*P stuff_consume B
*I u_stuffer\/_24_:A3 B
*I u_stuffer\/_20_:A2 B
*I u_stuffer\/_17_:A2 B
*I u_stuffer\/_16_:ZN B
*I _297_:A2 B
*I _280_:I1 B
*I _187_:A4 B
*I _184_:I B
*I _156_:A1 B
*CAP
1 stuff_consume 20.524689
2 stuff_consume stuff_pending_after 0.032394
3 stuff_consume sync_idx[1] 0.000134
4 stuff_consume tx_body_active 0.007603
5 stuff_consume tx_state[0] 0.004628
6 stuff_consume tx_state[2] 0.013057
7 stuff_consume tx_state[4] 0.010023
8 stuff_consume tx_state[6] 0.013883
9 stuff_consume u_stuffer\/_00_ 0.007603
10 stuff_consume u_stuffer\/_03_ 0.016392
11 stuff_consume u_stuffer\/_04_ 0.012230
12 stuff_consume u_stuffer\/_12_ 0.004628
13 stuff_consume u_stuffer\/run[1] 0.007603
14 stuff_consume u_stuffer\/run[2] 0.024539
*RES
1 stuff_consume stuff_consume:2 19.361900
2 stuff_consume stuff_consume:3 18.232300
3 stuff_consume stuff_consume:4 53.985000
4 stuff_consume stuff_consume:5 52.199100
5 stuff_consume stuff_consume:6 51.661900
6 stuff_consume stuff_consume:7 54.635300
7 stuff_consume stuff_consume:8 29.776500
8 stuff_consume stuff_consume:9 33.076400
9 stuff_consume stuff_consume:10 51.151700
10 stuff_consume stuff_consume:11 17.307400
11 stuff_consume stuff_consume:12 18.493300
12 stuff_consume stuff_consume:13 13.684500
13 stuff_consume stuff_consume:14 15.356800
14 stuff_consume stuff_consume:15 17.104300
15 stuff_consume stuff_consume:16 47.898100
16 stuff_consume stuff_consume:17 50.387900
17 stuff_consume stuff_consume:18 33.182100
18 stuff_consume stuff_consume:19 29.683500
19 stuff_consume stuff_consume:20 33.078500
20 stuff_consume stuff_consume:21 18.604500
21 stuff_consume stuff_consume:22 36.417900
22 stuff_consume stuff_consume:23 48.533400
23 stuff_consume stuff_consume:24 46.104200
24 stuff_consume stuff_consume:25 25.419900
25 stuff_consume stuff_consume:26 28.835700
26 stuff_consume stuff_consume:27 49.295600
27 stuff_consume stuff_consume:28 19.601400
28 stuff_consume stuff_consume:29 19.708600
29 stuff_consume stuff_consume:30 24.960200
30 stuff_consume stuff_consume:31 20.900500
31 stuff_consume stuff_consume:32 20.111000
32 stuff_consume stuff_consume:33 19.670100
33 stuff_consume stuff_consume:34 22.001200
34 stuff_consume stuff_consume:35 23.369000
35 stuff_consume stuff_consume:36 25.826900
36 stuff_consume stuff_consume:37 26.734800
37 stuff_consume stuff_consume:38 24.139300
38 stuff_consume stuff_consume:39 21.414600
39 stuff_consume stuff_consume:40 20.464300
40 stuff_consume stuff_consume:41 19.845100
41 stuff_consume stuff_consume:42 22.654500
42 stuff_consume stuff_consume:43 19.588500
43 stuff_consume stuff_consume:44 23.661500
44 stuff_consume stuff_consume:45 24.081800
45 stuff_consume stuff_consume:46 24.406400
46 stuff_consume stuff_consume:47 23.673300
47 stuff_consume u_stuffer\/_24_:A3 0.000000
48 stuff_consume u_stuffer\/_20_:A2 0.000000
49 stuff_consume u_stuffer\/_17_:A2 0.000000
50 stuff_consume u_stuffer\/_16_:ZN 0.000000
51 stuff_consume _297_:A2 0.000000
52 stuff_consume _280_:I1 0.000000
53 stuff_consume _187_:A4 0.000000
54 stuff_consume _184_:I 0.000000
55 stuff_consume _156_:A1 0.000000
*END

*D_NET stuff_pending_after 4.610240
*CONN
*P stuff_pending_after B
*I u_stuffer\/_19_:ZN B
*I _170_:I B
*I _158_:A1 B
*CAP
1 stuff_pending_after 4.568564
2 stuff_pending_after tx_state[2] 0.000826
3 stuff_pending_after tx_state[4] 0.009255
4 stuff_pending_after tx_state[6] 0.004628
5 stuff_pending_after u_stuffer\/_03_ 0.019364
6 stuff_pending_after u_stuffer\/_04_ 0.007603
*RES
1 stuff_pending_after stuff_pending_after:2 45.206500
2 stuff_pending_after stuff_pending_after:3 4.074500
3 stuff_pending_after stuff_pending_after:4 39.883500
4 stuff_pending_after stuff_pending_after:5 7.423100
5 stuff_pending_after stuff_pending_after:6 28.005300
6 stuff_pending_after stuff_pending_after:7 22.284500
7 stuff_pending_after stuff_pending_after:8 21.754900
8 stuff_pending_after stuff_pending_after:9 21.915600
9 stuff_pending_after u_stuffer\/_19_:ZN 0.000000
10 stuff_pending_after _170_:I 0.000000
11 stuff_pending_after _158_:A1 0.000000
*END

*D_NET sync_idx\[0\] 5.055601
*CONN
*P sync_idx\[0\] B
*I _314_:Q B
*I _265_:A1 B
*I _256_:A1 B
*I _166_:A1 B
*CAP
1 sync_idx[0] 5.032797
2 sync_idx[0] sync_idx[1] 0.018176
3 sync_idx[0] sync_idx[2] 0.004628
*RES
1 sync_idx[0] sync_idx\[0\]:2 29.429000
2 sync_idx[0] sync_idx\[0\]:3 53.121600
3 sync_idx[0] sync_idx\[0\]:4 22.555600
4 sync_idx[0] sync_idx\[0\]:5 18.178400
5 sync_idx[0] sync_idx\[0\]:6 21.054600
6 sync_idx[0] sync_idx\[0\]:7 59.273200
7 sync_idx[0] sync_idx\[0\]:8 41.697000
8 sync_idx[0] sync_idx\[0\]:9 51.298800
9 sync_idx[0] _314_:Q 0.000000
10 sync_idx[0] _265_:A1 0.000000
11 sync_idx[0] _256_:A1 0.000000
12 sync_idx[0] _166_:A1 0.000000
*END

*D_NET sync_idx\[1\] 6.979600
*CONN
*P sync_idx\[1\] B
*I _315_:Q B
*I _260_:A1 B
*I _258_:B2 B
*I _257_:A1 B
*I _166_:A3 B
*CAP
1 sync_idx[1] 6.979600
*RES
1 sync_idx[1] sync_idx\[1\]:2 45.686800
2 sync_idx[1] sync_idx\[1\]:3 51.956100
3 sync_idx[1] sync_idx\[1\]:4 54.158800
4 sync_idx[1] sync_idx\[1\]:5 28.307500
5 sync_idx[1] sync_idx\[1\]:6 44.935300
6 sync_idx[1] sync_idx\[1\]:7 55.502100
7 sync_idx[1] sync_idx\[1\]:8 14.589600
8 sync_idx[1] sync_idx\[1\]:9 32.581900
9 sync_idx[1] sync_idx\[1\]:10 49.748800
10 sync_idx[1] sync_idx\[1\]:11 21.376600
11 sync_idx[1] _315_:Q 0.000000
12 sync_idx[1] _260_:A1 0.000000
13 sync_idx[1] _258_:B2 0.000000
14 sync_idx[1] _257_:A1 0.000000
15 sync_idx[1] _166_:A3 0.000000
*END

*D_NET sync_idx\[2\] 2.919227
*CONN
*P sync_idx\[2\] B
*I _316_:Q B
*I _260_:B B
*I _166_:A2 B
*CAP
1 sync_idx[2] 2.919227
*RES
1 sync_idx[2] sync_idx\[2\]:2 27.273400
2 sync_idx[2] sync_idx\[2\]:3 22.985200
3 sync_idx[2] sync_idx\[2\]:4 40.559300
4 sync_idx[2] sync_idx\[2\]:5 27.531600
5 sync_idx[2] sync_idx\[2\]:6 41.359000
6 sync_idx[2] sync_idx\[2\]:7 27.277000
7 sync_idx[2] _316_:Q 0.000000
8 sync_idx[2] _260_:B 0.000000
9 sync_idx[2] _166_:A2 0.000000
*END

*D_NET sync_next 6.065589
*CONN
*P sync_next B
*I u_sync_detector\/_32_:A2 B
*I u_sync_detector\/_19_:ZN B
*I _291_:A1 B
*CAP
1 sync_next 6.046949
2 sync_next u_sync_detector\/_05_ 0.004049
3 sync_next u_sync_detector\/_07_ 0.006162
4 sync_next u_sync_detector\/match[3] 0.008429
*RES
1 sync_next sync_next:2 18.972400
2 sync_next sync_next:3 23.074800
3 sync_next sync_next:4 22.700300
4 sync_next sync_next:5 18.600600
5 sync_next sync_next:6 4.102800
6 sync_next sync_next:7 4.106500
7 sync_next sync_next:8 0.368300
8 sync_next sync_next:9 2.858000
9 sync_next sync_next:10 4.611100
10 sync_next sync_next:11 2.121400
11 sync_next sync_next:12 9.245800
12 sync_next sync_next:13 4.475100
13 sync_next sync_next:14 3.361100
14 sync_next sync_next:15 11.735500
15 sync_next sync_next:16 7.100800
16 sync_next sync_next:17 1.613100
17 sync_next sync_next:18 10.490700
18 sync_next sync_next:19 5.856000
19 sync_next sync_next:20 3.366300
20 sync_next sync_next:21 0.876600
21 sync_next sync_next:22 3.632600
22 sync_next sync_next:23 13.880500
23 sync_next sync_next:24 12.808000
24 sync_next sync_next:25 8.173300
25 sync_next u_sync_detector\/_32_:A2 0.000000
26 sync_next u_sync_detector\/_19_:ZN 0.000000
27 sync_next _291_:A1 0.000000
*END

*D_NET tx_body_active 13.679545
*CONN
*P tx_body_active B
*I u_stuffer\/_30_:A1 B
*I u_stuffer\/_28_:A3 B
*I u_stuffer\/_27_:A1 B
*I u_stuffer\/_25_:A2 B
*I u_stuffer\/_23_:A2 B
*I u_stuffer\/_22_:A3 B
*I _176_:ZN B
*CAP
1 tx_body_active 13.538218
2 tx_body_active u_stuffer\/_00_ 0.019337
3 tx_body_active u_stuffer\/_01_ 0.000956
4 tx_body_active u_stuffer\/_02_ 0.003801
5 tx_body_active u_stuffer\/_03_ 0.008429
6 tx_body_active u_stuffer\/_06_ 0.009934
7 tx_body_active u_stuffer\/_08_ 0.009255
8 tx_body_active u_stuffer\/_09_ 0.013057
9 tx_body_active u_stuffer\/_10_ 0.025694
10 tx_body_active u_stuffer\/_11_ 0.009255
11 tx_body_active u_stuffer\/_12_ 0.014668
12 tx_body_active u_stuffer\/_13_ 0.004628
13 tx_body_active u_stuffer\/run[0] 0.013057
14 tx_body_active u_stuffer\/run[1] 0.004628
15 tx_body_active u_stuffer\/run[2] 0.004628
*RES
1 tx_body_active tx_body_active:2 59.304900
2 tx_body_active tx_body_active:3 46.479300
3 tx_body_active tx_body_active:4 30.505800
4 tx_body_active tx_body_active:5 28.935000
5 tx_body_active tx_body_active:6 22.304200
6 tx_body_active tx_body_active:7 30.582900
7 tx_body_active tx_body_active:8 51.976400
8 tx_body_active tx_body_active:9 27.636700
9 tx_body_active tx_body_active:10 28.741300
10 tx_body_active tx_body_active:11 54.360900
11 tx_body_active tx_body_active:12 64.492100
12 tx_body_active tx_body_active:13 24.713700
13 tx_body_active tx_body_active:14 32.001200
14 tx_body_active tx_body_active:15 58.778500
15 tx_body_active tx_body_active:16 37.312400
16 tx_body_active tx_body_active:17 31.044900
17 tx_body_active tx_body_active:18 78.335800
18 tx_body_active tx_body_active:19 32.507700
19 tx_body_active tx_body_active:20 64.991200
20 tx_body_active tx_body_active:21 70.979800
21 tx_body_active tx_body_active:22 72.205700
22 tx_body_active tx_body_active:23 25.344000
23 tx_body_active u_stuffer\/_30_:A1 0.000000
24 tx_body_active u_stuffer\/_28_:A3 0.000000
25 tx_body_active u_stuffer\/_27_:A1 0.000000
26 tx_body_active u_stuffer\/_25_:A2 0.000000
27 tx_body_active u_stuffer\/_23_:A2 0.000000
28 tx_body_active u_stuffer\/_22_:A3 0.000000
29 tx_body_active _176_:ZN 0.000000
*END

*D_NET tx_state\[0\] 7.309740
*CONN
*P tx_state\[0\] B
*I _342_:Q B
*I _255_:S B
*I _163_:A2 B
*I _160_:I B
*CAP
1 tx_state[0] 7.286601
2 tx_state[0] tx_state[2] 0.018511
3 tx_state[0] tx_state[6] 0.004628
*RES
1 tx_state[0] tx_state\[0\]:2 56.454800
2 tx_state[0] tx_state\[0\]:3 63.302900
3 tx_state[0] tx_state\[0\]:4 57.243100
4 tx_state[0] tx_state\[0\]:5 66.527700
5 tx_state[0] tx_state\[0\]:6 59.946200
6 tx_state[0] tx_state\[0\]:7 9.602700
7 tx_state[0] tx_state\[0\]:8 4.910000
8 tx_state[0] tx_state\[0\]:9 10.189000
9 tx_state[0] tx_state\[0\]:10 74.195300
10 tx_state[0] tx_state\[0\]:11 60.073900
11 tx_state[0] tx_state\[0\]:12 69.318900
12 tx_state[0] tx_state\[0\]:13 6.159400
13 tx_state[0] _342_:Q 0.000000
14 tx_state[0] _255_:S 0.000000
15 tx_state[0] _163_:A2 0.000000
16 tx_state[0] _160_:I 0.000000
*END

*D_NET tx_state\[1\] 4.077525
*CONN
*P tx_state\[1\] B
*I _343_:Q B
*I _177_:A4 B
*I _159_:A1 B
*CAP
1 tx_state[1] 4.077525
*RES
1 tx_state[1] tx_state\[1\]:2 48.956500
2 tx_state[1] tx_state\[1\]:3 24.369600
3 tx_state[1] tx_state\[1\]:4 48.206400
4 tx_state[1] tx_state\[1\]:5 24.225100
5 tx_state[1] tx_state\[1\]:6 25.011500
6 tx_state[1] tx_state\[1\]:7 26.703400
7 tx_state[1] _343_:Q 0.000000
8 tx_state[1] _177_:A4 0.000000
9 tx_state[1] _159_:A1 0.000000
*END

*D_NET tx_state\[2\] 26.643912
*CONN
*P tx_state\[2\] B
*I _154_:A4 B
*I _175_:A1 B
*I _177_:A1 B
*I _188_:B B
*I _202_:A2 B
*I _213_:A1 B
*I _263_:A1 B
*I _284_:A1 B
*I _293_:B B
*I _297_:A1 B
*I _344_:Q B
*I _280_:S B
*I _212_:A1 B
*CAP
1 tx_state[2] 26.589206
2 tx_state[2] tx_state[4] 0.040823
3 tx_state[2] tx_state[6] 0.013883
*RES
1 tx_state[2] tx_state\[2\]:2 28.024600
2 tx_state[2] tx_state\[2\]:3 67.259500
3 tx_state[2] tx_state\[2\]:4 69.021000
4 tx_state[2] tx_state\[2\]:5 63.582000
5 tx_state[2] tx_state\[2\]:6 63.307600
6 tx_state[2] tx_state\[2\]:7 34.817100
7 tx_state[2] tx_state\[2\]:8 35.830900
8 tx_state[2] tx_state\[2\]:9 38.075100
9 tx_state[2] tx_state\[2\]:10 29.123700
10 tx_state[2] tx_state\[2\]:11 26.899900
11 tx_state[2] tx_state\[2\]:12 26.200100
12 tx_state[2] tx_state\[2\]:13 30.078000
13 tx_state[2] tx_state\[2\]:14 29.100700
14 tx_state[2] tx_state\[2\]:15 22.330700
15 tx_state[2] tx_state\[2\]:16 28.692200
16 tx_state[2] tx_state\[2\]:17 37.772800
17 tx_state[2] tx_state\[2\]:18 69.348800
18 tx_state[2] tx_state\[2\]:19 80.925400
19 tx_state[2] tx_state\[2\]:20 18.206800
20 tx_state[2] tx_state\[2\]:21 20.088900
21 tx_state[2] tx_state\[2\]:22 28.196700
22 tx_state[2] tx_state\[2\]:23 26.109400
23 tx_state[2] tx_state\[2\]:24 31.165900
24 tx_state[2] tx_state\[2\]:25 35.279800
25 tx_state[2] tx_state\[2\]:26 24.037500
26 tx_state[2] tx_state\[2\]:27 33.369400
27 tx_state[2] tx_state\[2\]:28 37.085100
28 tx_state[2] tx_state\[2\]:29 84.663600
29 tx_state[2] tx_state\[2\]:30 67.227500
30 tx_state[2] tx_state\[2\]:31 64.823900
31 tx_state[2] tx_state\[2\]:32 28.091700
32 tx_state[2] tx_state\[2\]:33 67.177500
33 tx_state[2] tx_state\[2\]:34 39.337900
34 tx_state[2] tx_state\[2\]:35 77.823100
35 tx_state[2] tx_state\[2\]:36 87.697800
36 tx_state[2] tx_state\[2\]:37 63.904800
37 tx_state[2] tx_state\[2\]:38 80.154100
38 tx_state[2] tx_state\[2\]:39 79.252700
39 tx_state[2] tx_state\[2\]:40 73.278900
40 tx_state[2] tx_state\[2\]:41 42.495600
41 tx_state[2] _154_:A4 0.000000
42 tx_state[2] _175_:A1 0.000000
43 tx_state[2] _177_:A1 0.000000
44 tx_state[2] _188_:B 0.000000
45 tx_state[2] _202_:A2 0.000000
46 tx_state[2] _213_:A1 0.000000
47 tx_state[2] _263_:A1 0.000000
48 tx_state[2] _284_:A1 0.000000
49 tx_state[2] _293_:B 0.000000
50 tx_state[2] _297_:A1 0.000000
51 tx_state[2] _344_:Q 0.000000
52 tx_state[2] _280_:S 0.000000
53 tx_state[2] _212_:A1 0.000000
*END

*D_NET tx_state\[3\] 2.893274
*CONN
*P tx_state\[3\] B
*I _345_:Q B
*I _183_:A1 B
*I _178_:A2 B
*CAP
1 tx_state[3] 2.887584
2 tx_state[3] tx_state[5] 0.005690
*RES
1 tx_state[3] tx_state\[3\]:2 65.999300
2 tx_state[3] tx_state\[3\]:3 20.767200
3 tx_state[3] tx_state\[3\]:4 45.842900
4 tx_state[3] tx_state\[3\]:5 17.284900
5 tx_state[3] tx_state\[3\]:6 11.212700
6 tx_state[3] tx_state\[3\]:7 38.439900
7 tx_state[3] _345_:Q 0.000000
8 tx_state[3] _183_:A1 0.000000
9 tx_state[3] _178_:A2 0.000000
*END

*D_NET tx_state\[4\] 13.118934
*CONN
*P tx_state\[4\] B
*I _346_:Q B
*I _280_:I0 B
*I _266_:A1 B
*I _255_:I0 B
*I _190_:A1 B
*I _186_:A1 B
*I _177_:A3 B
*I _165_:I B
*CAP
1 tx_state[4] 13.109679
2 tx_state[4] tx_state[6] 0.009255
*RES
1 tx_state[4] tx_state\[4\]:2 31.758200
2 tx_state[4] tx_state\[4\]:3 32.467800
3 tx_state[4] tx_state\[4\]:4 34.979700
4 tx_state[4] tx_state\[4\]:5 26.341800
5 tx_state[4] tx_state\[4\]:6 77.125100
6 tx_state[4] tx_state\[4\]:7 78.508300
7 tx_state[4] tx_state\[4\]:8 30.738500
8 tx_state[4] tx_state\[4\]:9 41.347200
9 tx_state[4] tx_state\[4\]:10 48.543700
10 tx_state[4] tx_state\[4\]:11 75.191900
11 tx_state[4] tx_state\[4\]:12 42.105700
12 tx_state[4] tx_state\[4\]:13 48.898500
13 tx_state[4] tx_state\[4\]:14 17.195200
14 tx_state[4] tx_state\[4\]:15 77.301900
15 tx_state[4] tx_state\[4\]:16 25.440700
16 tx_state[4] tx_state\[4\]:17 15.107400
17 tx_state[4] _346_:Q 0.000000
18 tx_state[4] _280_:I0 0.000000
19 tx_state[4] _266_:A1 0.000000
20 tx_state[4] _255_:I0 0.000000
21 tx_state[4] _190_:A1 0.000000
22 tx_state[4] _186_:A1 0.000000
23 tx_state[4] _177_:A3 0.000000
24 tx_state[4] _165_:I 0.000000
*END

*D_NET tx_state\[5\] 3.266009
*CONN
*P tx_state\[5\] B
*I _347_:Q B
*I _182_:A1 B
*I _178_:A1 B
*CAP
1 tx_state[5] 3.266009
*RES
1 tx_state[5] tx_state\[5\]:2 41.808700
2 tx_state[5] tx_state\[5\]:3 22.807200
3 tx_state[5] tx_state\[5\]:4 37.707400
4 tx_state[5] tx_state\[5\]:5 56.462400
5 tx_state[5] tx_state\[5\]:6 13.312700
6 tx_state[5] tx_state\[5\]:7 29.181900
7 tx_state[5] _347_:Q 0.000000
8 tx_state[5] _182_:A1 0.000000
9 tx_state[5] _178_:A1 0.000000
*END

*D_NET tx_state\[6\] 7.420608
*CONN
*P tx_state\[6\] B
*I _348_:Q B
*I _201_:B B
*I _177_:A2 B
*I _175_:A2 B
*I _157_:A1 B
*CAP
1 tx_state[6] 7.420608
*RES
1 tx_state[6] tx_state\[6\]:2 33.184800
2 tx_state[6] tx_state\[6\]:3 15.562800
3 tx_state[6] tx_state\[6\]:4 64.192100
4 tx_state[6] tx_state\[6\]:5 22.908800
5 tx_state[6] tx_state\[6\]:6 43.650100
6 tx_state[6] tx_state\[6\]:7 36.491500
7 tx_state[6] tx_state\[6\]:8 57.074200
8 tx_state[6] tx_state\[6\]:9 49.162800
9 tx_state[6] tx_state\[6\]:10 36.127700
10 tx_state[6] tx_state\[6\]:11 32.311300
11 tx_state[6] _348_:Q 0.000000
12 tx_state[6] _201_:B 0.000000
13 tx_state[6] _177_:A2 0.000000
14 tx_state[6] _175_:A2 0.000000
15 tx_state[6] _157_:A1 0.000000
*END

*D_NET tx_state\[7\] 3.570045
*CONN
*P tx_state\[7\] B
*I _349_:Q B
*I _180_:A1 B
*I _179_:A1 B
*I _161_:I B
*CAP
1 tx_state[7] 3.560790
2 tx_state[7] txdm 0.009255
*RES
1 tx_state[7] tx_state\[7\]:2 28.920300
2 tx_state[7] tx_state\[7\]:3 40.571500
3 tx_state[7] tx_state\[7\]:4 43.497100
4 tx_state[7] tx_state\[7\]:5 40.190400
5 tx_state[7] tx_state\[7\]:6 25.529500
6 tx_state[7] tx_state\[7\]:7 46.196900
7 tx_state[7] tx_state\[7\]:8 28.221500
8 tx_state[7] tx_state\[7\]:9 29.299500
9 tx_state[7] _349_:Q 0.000000
10 tx_state[7] _180_:A1 0.000000
11 tx_state[7] _179_:A1 0.000000
12 tx_state[7] _161_:I 0.000000
*END

*D_NET txdm 5.727759
*CONN
*P txdm B
*I _179_:ZN B
*CAP
1 txdm 5.723131
2 txdm u_line_state\/_2_ 0.004628
*RES
1 txdm txdm:2 9.124700
2 txdm txdm:3 4.868800
3 txdm txdm:4 2.156800
4 txdm txdm:5 6.868400
5 txdm txdm:6 3.532000
6 txdm _179_:ZN 0.000000
*END

*D_NET txdp 5.472949
*CONN
*P txdp B
*I _181_:ZN B
*CAP
1 txdp 5.468321
2 txdp u_line_state\/_0_ 0.004628
*RES
1 txdp txdp:2 11.649400
2 txdp txdp:3 6.165100
3 txdp txdp:4 7.371000
4 txdp _181_:ZN 0.000000
*END

*D_NET u_decoder\/_00_ 1.682515
*CONN
*P u_decoder\/_00_ B
*I u_decoder\/_12_:D B
*I u_decoder\/_06_:ZN B
*CAP
1 u_decoder\/_00_ 1.682515
*RES
1 u_decoder\/_00_ u_decoder\/_00_:2 25.366200
2 u_decoder\/_00_ u_decoder\/_00_:3 16.898700
3 u_decoder\/_00_ u_decoder\/_00_:4 16.849500
4 u_decoder\/_00_ u_decoder\/_00_:5 25.718300
5 u_decoder\/_00_ u_decoder\/_12_:D 0.000000
6 u_decoder\/_00_ u_decoder\/_06_:ZN 0.000000
*END

*D_NET u_decoder\/_01_ 2.273309
*CONN
*P u_decoder\/_01_ B
*I u_decoder\/_10_:D B
*I u_decoder\/_07_:Z B
*CAP
1 u_decoder\/_01_ 2.268681
2 u_decoder\/_01_ u_decoder\/_03_ 0.004628
*RES
1 u_decoder\/_01_ u_decoder\/_01_:2 25.432300
2 u_decoder\/_01_ u_decoder\/_01_:3 18.179700
3 u_decoder\/_01_ u_decoder\/_01_:4 24.719200
4 u_decoder\/_01_ u_decoder\/_01_:5 18.879300
5 u_decoder\/_01_ u_decoder\/_10_:D 0.000000
6 u_decoder\/_01_ u_decoder\/_07_:Z 0.000000
*END

*D_NET u_decoder\/_02_ 1.896127
*CONN
*P u_decoder\/_02_ B
*I u_decoder\/_11_:D B
*I u_decoder\/_09_:Z B
*CAP
1 u_decoder\/_02_ 1.896127
*RES
1 u_decoder\/_02_ u_decoder\/_02_:2 18.330200
2 u_decoder\/_02_ u_decoder\/_02_:3 24.038300
3 u_decoder\/_02_ u_decoder\/_02_:4 14.736400
4 u_decoder\/_02_ u_decoder\/_02_:5 6.380500
5 u_decoder\/_02_ u_decoder\/_02_:6 8.354000
6 u_decoder\/_02_ u_decoder\/_02_:7 13.777000
7 u_decoder\/_02_ u_decoder\/_11_:D 0.000000
8 u_decoder\/_02_ u_decoder\/_09_:Z 0.000000
*END

*D_NET u_decoder\/_03_ 2.635109
*CONN
*P u_decoder\/_03_ B
*I u_decoder\/_09_:I0 B
*I u_decoder\/_08_:ZN B
*CAP
1 u_decoder\/_03_ 2.618086
2 u_decoder\/_03_ u_decoder\/_04_ 0.008594
3 u_decoder\/_03_ u_decoder\/prev_level 0.008429
*RES
1 u_decoder\/_03_ u_decoder\/_03_:2 23.128800
2 u_decoder\/_03_ u_decoder\/_03_:3 21.224200
3 u_decoder\/_03_ u_decoder\/_03_:4 12.212900
4 u_decoder\/_03_ u_decoder\/_03_:5 14.195300
5 u_decoder\/_03_ u_decoder\/_03_:6 8.182400
6 u_decoder\/_03_ u_decoder\/_03_:7 10.441500
7 u_decoder\/_03_ u_decoder\/_09_:I0 0.000000
8 u_decoder\/_03_ u_decoder\/_08_:ZN 0.000000
*END

*D_NET u_decoder\/_04_ 7.484406
*CONN
*P u_decoder\/_04_ B
*I u_decoder\/_09_:S B
*I u_decoder\/_07_:S B
*I u_decoder\/_06_:I B
*I u_decoder\/_05_:ZN B
*CAP
1 u_decoder\/_04_ 7.451025
2 u_decoder\/_04_ u_decoder\/prev_level 0.033381
*RES
1 u_decoder\/_04_ u_decoder\/_04_:2 5.816400
2 u_decoder\/_04_ u_decoder\/_04_:3 8.206900
3 u_decoder\/_04_ u_decoder\/_04_:4 2.458500
4 u_decoder\/_04_ u_decoder\/_04_:5 41.839400
5 u_decoder\/_04_ u_decoder\/_04_:6 6.441100
6 u_decoder\/_04_ u_decoder\/_04_:7 37.347200
7 u_decoder\/_04_ u_decoder\/_04_:8 44.087600
8 u_decoder\/_04_ u_decoder\/_04_:9 58.536300
9 u_decoder\/_04_ u_decoder\/_04_:10 35.169200
10 u_decoder\/_04_ u_decoder\/_04_:11 59.836900
11 u_decoder\/_04_ u_decoder\/_04_:12 14.417800
12 u_decoder\/_04_ u_decoder\/_04_:13 17.582900
13 u_decoder\/_04_ u_decoder\/_04_:14 23.818800
14 u_decoder\/_04_ u_decoder\/_04_:15 29.183500
15 u_decoder\/_04_ u_decoder\/_04_:16 18.561100
16 u_decoder\/_04_ u_decoder\/_04_:17 21.171500
17 u_decoder\/_04_ u_decoder\/_04_:18 26.491800
18 u_decoder\/_04_ u_decoder\/_04_:19 16.005500
19 u_decoder\/_04_ u_decoder\/_04_:20 25.504900
20 u_decoder\/_04_ u_decoder\/_04_:21 28.549200
21 u_decoder\/_04_ u_decoder\/_04_:22 13.535700
22 u_decoder\/_04_ u_decoder\/_04_:23 31.889200
23 u_decoder\/_04_ u_decoder\/_09_:S 0.000000
24 u_decoder\/_04_ u_decoder\/_07_:S 0.000000
25 u_decoder\/_04_ u_decoder\/_06_:I 0.000000
26 u_decoder\/_04_ u_decoder\/_05_:ZN 0.000000
*END

*D_NET u_decoder\/prev_level 4.060836
*CONN
*P u_decoder\/prev_level B
*I u_decoder\/_10_:Q B
*I u_decoder\/_08_:A2 B
*I u_decoder\/_07_:I1 B
*CAP
1 u_decoder\/prev_level 4.060836
*RES
1 u_decoder\/prev_level u_decoder\/prev_level:2 67.421900
2 u_decoder\/prev_level u_decoder\/prev_level:3 51.727000
3 u_decoder\/prev_level u_decoder\/prev_level:4 19.519800
4 u_decoder\/prev_level u_decoder\/prev_level:5 21.896100
5 u_decoder\/prev_level u_decoder\/prev_level:6 26.568000
6 u_decoder\/prev_level u_decoder\/prev_level:7 45.704900
7 u_decoder\/prev_level u_decoder\/prev_level:8 59.986700
8 u_decoder\/prev_level u_decoder\/prev_level:9 7.798400
9 u_decoder\/prev_level u_decoder\/_10_:Q 0.000000
10 u_decoder\/prev_level u_decoder\/_08_:A2 0.000000
11 u_decoder\/prev_level u_decoder\/_07_:I1 0.000000
*END

*D_NET u_destuffer\/_00_ 6.917180
*CONN
*P u_destuffer\/_00_ B
*I u_destuffer\/_36_:D B
*I u_destuffer\/_27_:S B
*I u_destuffer\/_19_:ZN B
*CAP
1 u_destuffer\/_00_ 6.878391
2 u_destuffer\/_00_ u_destuffer\/_01_ 0.008819
3 u_destuffer\/_00_ u_destuffer\/_06_ 0.008650
4 u_destuffer\/_00_ u_destuffer\/_07_ 0.009751
5 u_destuffer\/_00_ u_destuffer\/_08_ 0.011569
*RES
1 u_destuffer\/_00_ u_destuffer\/_00_:2 34.323300
2 u_destuffer\/_00_ u_destuffer\/_00_:3 18.614100
3 u_destuffer\/_00_ u_destuffer\/_00_:4 22.803400
4 u_destuffer\/_00_ u_destuffer\/_00_:5 37.059700
5 u_destuffer\/_00_ u_destuffer\/_00_:6 29.193500
6 u_destuffer\/_00_ u_destuffer\/_00_:7 34.698100
7 u_destuffer\/_00_ u_destuffer\/_00_:8 3.334600
8 u_destuffer\/_00_ u_destuffer\/_00_:9 6.968900
9 u_destuffer\/_00_ u_destuffer\/_00_:10 13.456800
10 u_destuffer\/_00_ u_destuffer\/_00_:11 8.959500
11 u_destuffer\/_00_ u_destuffer\/_00_:12 5.193600
12 u_destuffer\/_00_ u_destuffer\/_00_:13 12.742100
13 u_destuffer\/_00_ u_destuffer\/_00_:14 14.635600
14 u_destuffer\/_00_ u_destuffer\/_00_:15 10.849800
15 u_destuffer\/_00_ u_destuffer\/_00_:16 7.072800
16 u_destuffer\/_00_ u_destuffer\/_00_:17 8.693700
17 u_destuffer\/_00_ u_destuffer\/_00_:18 15.442500
18 u_destuffer\/_00_ u_destuffer\/_00_:19 6.224100
19 u_destuffer\/_00_ u_destuffer\/_00_:20 4.810500
20 u_destuffer\/_00_ u_destuffer\/_00_:21 4.027500
21 u_destuffer\/_00_ u_destuffer\/_00_:22 4.240100
22 u_destuffer\/_00_ u_destuffer\/_00_:23 16.529900
23 u_destuffer\/_00_ u_destuffer\/_36_:D 0.000000
24 u_destuffer\/_00_ u_destuffer\/_27_:S 0.000000
25 u_destuffer\/_00_ u_destuffer\/_19_:ZN 0.000000
*END

*D_NET u_destuffer\/_01_ 1.673920
*CONN
*P u_destuffer\/_01_ B
*I u_destuffer\/_37_:D B
*I u_destuffer\/_20_:Z B
*CAP
1 u_destuffer\/_01_ 1.673920
*RES
1 u_destuffer\/_01_ u_destuffer\/_01_:2 25.274700
2 u_destuffer\/_01_ u_destuffer\/_01_:3 17.157500
3 u_destuffer\/_01_ u_destuffer\/_01_:4 17.473700
4 u_destuffer\/_01_ u_destuffer\/_01_:5 24.441500
5 u_destuffer\/_01_ u_destuffer\/_37_:D 0.000000
6 u_destuffer\/_01_ u_destuffer\/_20_:Z 0.000000
*END

*D_NET u_destuffer\/_02_ 2.913233
*CONN
*P u_destuffer\/_02_ B
*I u_destuffer\/_34_:D B
*I u_destuffer\/_26_:ZN B
*CAP
1 u_destuffer\/_02_ 2.897697
2 u_destuffer\/_02_ u_destuffer\/_04_ 0.004628
3 u_destuffer\/_02_ u_destuffer\/_10_ 0.005454
4 u_destuffer\/_02_ u_destuffer\/_13_ 0.005454
*RES
1 u_destuffer\/_02_ u_destuffer\/_02_:2 20.641800
2 u_destuffer\/_02_ u_destuffer\/_02_:3 23.916500
3 u_destuffer\/_02_ u_destuffer\/_02_:4 7.098000
4 u_destuffer\/_02_ u_destuffer\/_02_:5 6.349300
5 u_destuffer\/_02_ u_destuffer\/_02_:6 6.046400
6 u_destuffer\/_02_ u_destuffer\/_02_:7 5.975400
7 u_destuffer\/_02_ u_destuffer\/_02_:8 10.006900
8 u_destuffer\/_02_ u_destuffer\/_02_:9 10.218800
9 u_destuffer\/_02_ u_destuffer\/_34_:D 0.000000
10 u_destuffer\/_02_ u_destuffer\/_26_:ZN 0.000000
*END

*D_NET u_destuffer\/_03_ 2.079542
*CONN
*P u_destuffer\/_03_ B
*I u_destuffer\/_32_:D B
*I u_destuffer\/_27_:Z B
*CAP
1 u_destuffer\/_03_ 2.079542
*RES
1 u_destuffer\/_03_ u_destuffer\/_03_:2 23.903400
2 u_destuffer\/_03_ u_destuffer\/_03_:3 19.168700
3 u_destuffer\/_03_ u_destuffer\/_03_:4 13.558200
4 u_destuffer\/_03_ u_destuffer\/_03_:5 8.270500
5 u_destuffer\/_03_ u_destuffer\/_03_:6 7.639400
6 u_destuffer\/_03_ u_destuffer\/_03_:7 13.916200
7 u_destuffer\/_03_ u_destuffer\/_32_:D 0.000000
8 u_destuffer\/_03_ u_destuffer\/_27_:Z 0.000000
*END

*D_NET u_destuffer\/_04_ 1.736386
*CONN
*P u_destuffer\/_04_ B
*I u_destuffer\/_35_:D B
*I u_destuffer\/_29_:ZN B
*CAP
1 u_destuffer\/_04_ 1.732585
2 u_destuffer\/_04_ u_destuffer\/_10_ 0.003801
*RES
1 u_destuffer\/_04_ u_destuffer\/_04_:2 26.580900
2 u_destuffer\/_04_ u_destuffer\/_04_:3 15.552200
3 u_destuffer\/_04_ u_destuffer\/_04_:4 24.750600
4 u_destuffer\/_04_ u_destuffer\/_04_:5 11.955500
5 u_destuffer\/_04_ u_destuffer\/_04_:6 6.310800
6 u_destuffer\/_04_ u_destuffer\/_35_:D 0.000000
7 u_destuffer\/_04_ u_destuffer\/_29_:ZN 0.000000
*END

*D_NET u_destuffer\/_05_ 1.482478
*CONN
*P u_destuffer\/_05_ B
*I u_destuffer\/_33_:D B
*I u_destuffer\/_31_:ZN B
*CAP
1 u_destuffer\/_05_ 1.478212
2 u_destuffer\/_05_ u_destuffer\/_08_ 0.000465
3 u_destuffer\/_05_ u_destuffer\/_12_ 0.003801
*RES
1 u_destuffer\/_05_ u_destuffer\/_05_:2 26.864200
2 u_destuffer\/_05_ u_destuffer\/_05_:3 14.559000
3 u_destuffer\/_05_ u_destuffer\/_05_:4 25.333200
4 u_destuffer\/_05_ u_destuffer\/_05_:5 11.211300
5 u_destuffer\/_05_ u_destuffer\/_05_:6 5.844800
6 u_destuffer\/_05_ u_destuffer\/_33_:D 0.000000
7 u_destuffer\/_05_ u_destuffer\/_31_:ZN 0.000000
*END

*D_NET u_destuffer\/_06_ 5.264611
*CONN
*P u_destuffer\/_06_ B
*I u_destuffer\/_21_:A3 B
*I u_destuffer\/_17_:A2 B
*I u_destuffer\/_16_:ZN B
*CAP
1 u_destuffer\/_06_ 5.241923
2 u_destuffer\/_06_ u_destuffer\/_07_ 0.016634
3 u_destuffer\/_06_ u_destuffer\/_08_ 0.004628
4 u_destuffer\/_06_ u_destuffer\/ones_run[1] 0.001426
*RES
1 u_destuffer\/_06_ u_destuffer\/_06_:2 26.295600
2 u_destuffer\/_06_ u_destuffer\/_06_:3 21.448200
3 u_destuffer\/_06_ u_destuffer\/_06_:4 31.371400
4 u_destuffer\/_06_ u_destuffer\/_06_:5 24.092200
5 u_destuffer\/_06_ u_destuffer\/_06_:6 28.723700
6 u_destuffer\/_06_ u_destuffer\/_06_:7 20.526200
7 u_destuffer\/_06_ u_destuffer\/_06_:8 18.515500
8 u_destuffer\/_06_ u_destuffer\/_06_:9 15.700400
9 u_destuffer\/_06_ u_destuffer\/_06_:10 9.602200
10 u_destuffer\/_06_ u_destuffer\/_06_:11 14.835600
11 u_destuffer\/_06_ u_destuffer\/_06_:12 4.414900
12 u_destuffer\/_06_ u_destuffer\/_06_:13 12.216800
13 u_destuffer\/_06_ u_destuffer\/_06_:14 17.456600
14 u_destuffer\/_06_ u_destuffer\/_06_:15 6.996400
15 u_destuffer\/_06_ u_destuffer\/_06_:16 9.183500
16 u_destuffer\/_06_ u_destuffer\/_06_:17 7.210400
17 u_destuffer\/_06_ u_destuffer\/_06_:18 20.079000
18 u_destuffer\/_06_ u_destuffer\/_06_:19 1.956800
19 u_destuffer\/_06_ u_destuffer\/_21_:A3 0.000000
20 u_destuffer\/_06_ u_destuffer\/_17_:A2 0.000000
21 u_destuffer\/_06_ u_destuffer\/_16_:ZN 0.000000
*END

*D_NET u_destuffer\/_07_ 4.900522
*CONN
*P u_destuffer\/_07_ B
*I u_destuffer\/_20_:A4 B
*I u_destuffer\/_19_:A2 B
*I u_destuffer\/_17_:ZN B
*CAP
1 u_destuffer\/_07_ 4.890440
2 u_destuffer\/_07_ u_destuffer\/_08_ 0.004628
3 u_destuffer\/_07_ u_destuffer\/ones_run[0] 0.005454
*RES
1 u_destuffer\/_07_ u_destuffer\/_07_:2 42.845400
2 u_destuffer\/_07_ u_destuffer\/_07_:3 47.915800
3 u_destuffer\/_07_ u_destuffer\/_07_:4 41.674000
4 u_destuffer\/_07_ u_destuffer\/_07_:5 32.936700
5 u_destuffer\/_07_ u_destuffer\/_07_:6 31.383600
6 u_destuffer\/_07_ u_destuffer\/_07_:7 10.479000
7 u_destuffer\/_07_ u_destuffer\/_07_:8 13.953300
8 u_destuffer\/_07_ u_destuffer\/_07_:9 30.127800
9 u_destuffer\/_07_ u_destuffer\/_07_:10 35.682600
10 u_destuffer\/_07_ u_destuffer\/_07_:11 22.150100
11 u_destuffer\/_07_ u_destuffer\/_07_:12 28.606600
12 u_destuffer\/_07_ u_destuffer\/_07_:13 31.962000
13 u_destuffer\/_07_ u_destuffer\/_07_:14 42.557300
14 u_destuffer\/_07_ u_destuffer\/_07_:15 36.776300
15 u_destuffer\/_07_ u_destuffer\/_07_:16 25.874000
16 u_destuffer\/_07_ u_destuffer\/_07_:17 18.723900
17 u_destuffer\/_07_ u_destuffer\/_20_:A4 0.000000
18 u_destuffer\/_07_ u_destuffer\/_19_:A2 0.000000
19 u_destuffer\/_07_ u_destuffer\/_17_:ZN 0.000000
*END

*D_NET u_destuffer\/_08_ 10.339262
*CONN
*P u_destuffer\/_08_ B
*I u_destuffer\/_24_:A1 B
*I u_destuffer\/_22_:A1 B
*I u_destuffer\/_19_:B B
*I u_destuffer\/_18_:ZN B
*CAP
1 u_destuffer\/_08_ 10.306868
2 u_destuffer\/_08_ u_destuffer\/_09_ 0.004628
3 u_destuffer\/_08_ u_destuffer\/_10_ 0.009255
4 u_destuffer\/_08_ u_destuffer\/_12_ 0.004628
5 u_destuffer\/_08_ u_destuffer\/_15_ 0.004628
6 u_destuffer\/_08_ u_destuffer\/ones_run[0] 0.009255
*RES
1 u_destuffer\/_08_ u_destuffer\/_08_:2 38.754000
2 u_destuffer\/_08_ u_destuffer\/_08_:3 32.858700
3 u_destuffer\/_08_ u_destuffer\/_08_:4 51.121400
4 u_destuffer\/_08_ u_destuffer\/_08_:5 37.280700
5 u_destuffer\/_08_ u_destuffer\/_08_:6 55.164700
6 u_destuffer\/_08_ u_destuffer\/_08_:7 31.580400
7 u_destuffer\/_08_ u_destuffer\/_08_:8 39.034000
8 u_destuffer\/_08_ u_destuffer\/_08_:9 29.994700
9 u_destuffer\/_08_ u_destuffer\/_08_:10 34.774300
10 u_destuffer\/_08_ u_destuffer\/_08_:11 49.450400
11 u_destuffer\/_08_ u_destuffer\/_08_:12 47.844300
12 u_destuffer\/_08_ u_destuffer\/_08_:13 36.840700
13 u_destuffer\/_08_ u_destuffer\/_08_:14 43.941300
14 u_destuffer\/_08_ u_destuffer\/_08_:15 42.991700
15 u_destuffer\/_08_ u_destuffer\/_08_:16 38.671300
16 u_destuffer\/_08_ u_destuffer\/_08_:17 56.709100
17 u_destuffer\/_08_ u_destuffer\/_08_:18 52.042300
18 u_destuffer\/_08_ u_destuffer\/_08_:19 44.468600
19 u_destuffer\/_08_ u_destuffer\/_08_:20 40.474400
20 u_destuffer\/_08_ u_destuffer\/_08_:21 42.387600
21 u_destuffer\/_08_ u_destuffer\/_08_:22 7.428600
22 u_destuffer\/_08_ u_destuffer\/_08_:23 10.365800
23 u_destuffer\/_08_ u_destuffer\/_08_:24 6.901200
24 u_destuffer\/_08_ u_destuffer\/_08_:25 9.943600
25 u_destuffer\/_08_ u_destuffer\/_24_:A1 0.000000
26 u_destuffer\/_08_ u_destuffer\/_22_:A1 0.000000
27 u_destuffer\/_08_ u_destuffer\/_19_:B 0.000000
28 u_destuffer\/_08_ u_destuffer\/_18_:ZN 0.000000
*END

*D_NET u_destuffer\/_09_ 3.698876
*CONN
*P u_destuffer\/_09_ B
*I u_destuffer\/_30_:A2 B
*I u_destuffer\/_22_:B B
*I u_destuffer\/_21_:Z B
*CAP
1 u_destuffer\/_09_ 3.689620
2 u_destuffer\/_09_ u_destuffer\/_10_ 0.004628
3 u_destuffer\/_09_ u_destuffer\/_15_ 0.004628
*RES
1 u_destuffer\/_09_ u_destuffer\/_09_:2 13.244600
2 u_destuffer\/_09_ u_destuffer\/_09_:3 12.638000
3 u_destuffer\/_09_ u_destuffer\/_09_:4 17.743300
4 u_destuffer\/_09_ u_destuffer\/_09_:5 53.300700
5 u_destuffer\/_09_ u_destuffer\/_09_:6 17.364900
6 u_destuffer\/_09_ u_destuffer\/_09_:7 40.497300
7 u_destuffer\/_09_ u_destuffer\/_09_:8 34.669400
8 u_destuffer\/_09_ u_destuffer\/_09_:9 32.305100
9 u_destuffer\/_09_ u_destuffer\/_09_:10 21.141600
10 u_destuffer\/_09_ u_destuffer\/_09_:11 24.839000
11 u_destuffer\/_09_ u_destuffer\/_30_:A2 0.000000
12 u_destuffer\/_09_ u_destuffer\/_22_:B 0.000000
13 u_destuffer\/_09_ u_destuffer\/_21_:Z 0.000000
*END

*D_NET u_destuffer\/_10_ 5.075898
*CONN
*P u_destuffer\/_10_ B
*I u_destuffer\/_29_:A1 B
*I u_destuffer\/_26_:A1 B
*I u_destuffer\/_22_:ZN B
*CAP
1 u_destuffer\/_10_ 5.057063
2 u_destuffer\/_10_ u_destuffer\/_12_ 0.004952
3 u_destuffer\/_10_ u_destuffer\/_14_ 0.009255
4 u_destuffer\/_10_ u_destuffer\/ones_run[1] 0.004628
*RES
1 u_destuffer\/_10_ u_destuffer\/_10_:2 19.326100
2 u_destuffer\/_10_ u_destuffer\/_10_:3 20.580100
3 u_destuffer\/_10_ u_destuffer\/_10_:4 24.527900
4 u_destuffer\/_10_ u_destuffer\/_10_:5 22.730500
5 u_destuffer\/_10_ u_destuffer\/_10_:6 25.451600
6 u_destuffer\/_10_ u_destuffer\/_10_:7 27.002000
7 u_destuffer\/_10_ u_destuffer\/_10_:8 19.486200
8 u_destuffer\/_10_ u_destuffer\/_10_:9 14.484100
9 u_destuffer\/_10_ u_destuffer\/_10_:10 14.081600
10 u_destuffer\/_10_ u_destuffer\/_10_:11 16.093700
11 u_destuffer\/_10_ u_destuffer\/_10_:12 19.710500
12 u_destuffer\/_10_ u_destuffer\/_10_:13 17.900000
13 u_destuffer\/_10_ u_destuffer\/_10_:14 17.655400
14 u_destuffer\/_10_ u_destuffer\/_10_:15 12.855300
15 u_destuffer\/_10_ u_destuffer\/_29_:A1 0.000000
16 u_destuffer\/_10_ u_destuffer\/_26_:A1 0.000000
17 u_destuffer\/_10_ u_destuffer\/_22_:ZN 0.000000
*END

*D_NET u_destuffer\/_11_ 3.464435
*CONN
*P u_destuffer\/_11_ B
*I u_destuffer\/_24_:B B
*I u_destuffer\/_23_:ZN B
*CAP
1 u_destuffer\/_11_ 3.464435
*RES
1 u_destuffer\/_11_ u_destuffer\/_11_:2 28.335000
2 u_destuffer\/_11_ u_destuffer\/_11_:3 13.483000
3 u_destuffer\/_11_ u_destuffer\/_11_:4 16.668400
4 u_destuffer\/_11_ u_destuffer\/_11_:5 11.928800
5 u_destuffer\/_11_ u_destuffer\/_11_:6 13.202700
6 u_destuffer\/_11_ u_destuffer\/_11_:7 29.362300
7 u_destuffer\/_11_ u_destuffer\/_11_:8 27.498500
8 u_destuffer\/_11_ u_destuffer\/_11_:9 27.136900
9 u_destuffer\/_11_ u_destuffer\/_11_:10 30.876600
10 u_destuffer\/_11_ u_destuffer\/_11_:11 31.745400
11 u_destuffer\/_11_ u_destuffer\/_11_:12 47.146900
12 u_destuffer\/_11_ u_destuffer\/_11_:13 47.761800
13 u_destuffer\/_11_ u_destuffer\/_24_:B 0.000000
14 u_destuffer\/_11_ u_destuffer\/_23_:ZN 0.000000
*END

*D_NET u_destuffer\/_12_ 7.750201
*CONN
*P u_destuffer\/_12_ B
*I u_destuffer\/_31_:A1 B
*I u_destuffer\/_28_:A2 B
*I u_destuffer\/_25_:A2 B
*I u_destuffer\/_24_:ZN B
*CAP
1 u_destuffer\/_12_ 7.708564
2 u_destuffer\/_12_ u_destuffer\/_13_ 0.008429
3 u_destuffer\/_12_ u_destuffer\/_14_ 0.000826
4 u_destuffer\/_12_ u_destuffer\/_15_ 0.004628
5 u_destuffer\/_12_ u_destuffer\/ones_run[1] 0.027754
*RES
1 u_destuffer\/_12_ u_destuffer\/_12_:2 7.730900
2 u_destuffer\/_12_ u_destuffer\/_12_:3 24.179600
3 u_destuffer\/_12_ u_destuffer\/_12_:4 31.784100
4 u_destuffer\/_12_ u_destuffer\/_12_:5 29.221800
5 u_destuffer\/_12_ u_destuffer\/_12_:6 3.952100
6 u_destuffer\/_12_ u_destuffer\/_12_:7 32.384600
7 u_destuffer\/_12_ u_destuffer\/_12_:8 27.431900
8 u_destuffer\/_12_ u_destuffer\/_12_:9 35.707400
9 u_destuffer\/_12_ u_destuffer\/_12_:10 14.365800
10 u_destuffer\/_12_ u_destuffer\/_12_:11 11.795900
11 u_destuffer\/_12_ u_destuffer\/_12_:12 7.902000
12 u_destuffer\/_12_ u_destuffer\/_12_:13 9.445800
13 u_destuffer\/_12_ u_destuffer\/_12_:14 11.576200
14 u_destuffer\/_12_ u_destuffer\/_12_:15 12.773100
15 u_destuffer\/_12_ u_destuffer\/_12_:16 7.470000
16 u_destuffer\/_12_ u_destuffer\/_12_:17 8.578000
17 u_destuffer\/_12_ u_destuffer\/_12_:18 10.457800
18 u_destuffer\/_12_ u_destuffer\/_12_:19 11.495300
19 u_destuffer\/_12_ u_destuffer\/_12_:20 13.430700
20 u_destuffer\/_12_ u_destuffer\/_12_:21 20.153100
21 u_destuffer\/_12_ u_destuffer\/_12_:22 18.801800
22 u_destuffer\/_12_ u_destuffer\/_12_:23 17.501100
23 u_destuffer\/_12_ u_destuffer\/_12_:24 16.263500
24 u_destuffer\/_12_ u_destuffer\/_12_:25 7.325500
25 u_destuffer\/_12_ u_destuffer\/_31_:A1 0.000000
26 u_destuffer\/_12_ u_destuffer\/_28_:A2 0.000000
27 u_destuffer\/_12_ u_destuffer\/_25_:A2 0.000000
28 u_destuffer\/_12_ u_destuffer\/_24_:ZN 0.000000
*END

*D_NET u_destuffer\/_13_ 2.855717
*CONN
*P u_destuffer\/_13_ B
*I u_destuffer\/_26_:A2 B
*I u_destuffer\/_25_:ZN B
*CAP
1 u_destuffer\/_13_ 2.843008
2 u_destuffer\/_13_ u_destuffer\/ones_run[1] 0.012709
*RES
1 u_destuffer\/_13_ u_destuffer\/_13_:2 7.590100
2 u_destuffer\/_13_ u_destuffer\/_13_:3 26.172500
3 u_destuffer\/_13_ u_destuffer\/_13_:4 24.568700
4 u_destuffer\/_13_ u_destuffer\/_13_:5 35.085800
5 u_destuffer\/_13_ u_destuffer\/_13_:6 15.896700
6 u_destuffer\/_13_ u_destuffer\/_13_:7 22.669000
7 u_destuffer\/_13_ u_destuffer\/_13_:8 28.384700
8 u_destuffer\/_13_ u_destuffer\/_13_:9 25.467900
9 u_destuffer\/_13_ u_destuffer\/_26_:A2 0.000000
10 u_destuffer\/_13_ u_destuffer\/_25_:ZN 0.000000
*END

*D_NET u_destuffer\/_14_ 1.335789
*CONN
*P u_destuffer\/_14_ B
*I u_destuffer\/_29_:A2 B
*I u_destuffer\/_28_:ZN B
*CAP
1 u_destuffer\/_14_ 1.335789
*RES
1 u_destuffer\/_14_ u_destuffer\/_14_:2 18.308200
2 u_destuffer\/_14_ u_destuffer\/_14_:3 18.203800
3 u_destuffer\/_14_ u_destuffer\/_14_:4 11.179400
4 u_destuffer\/_14_ u_destuffer\/_14_:5 16.611900
5 u_destuffer\/_14_ u_destuffer\/_14_:6 7.957000
6 u_destuffer\/_14_ u_destuffer\/_14_:7 11.066100
7 u_destuffer\/_14_ u_destuffer\/_29_:A2 0.000000
8 u_destuffer\/_14_ u_destuffer\/_28_:ZN 0.000000
*END

*D_NET u_destuffer\/_15_ 1.822516
*CONN
*P u_destuffer\/_15_ B
*I u_destuffer\/_31_:A2 B
*I u_destuffer\/_30_:ZN B
*CAP
1 u_destuffer\/_15_ 1.822516
*RES
1 u_destuffer\/_15_ u_destuffer\/_15_:2 24.214500
2 u_destuffer\/_15_ u_destuffer\/_15_:3 18.056700
3 u_destuffer\/_15_ u_destuffer\/_15_:4 14.089400
4 u_destuffer\/_15_ u_destuffer\/_15_:5 16.719100
5 u_destuffer\/_15_ u_destuffer\/_15_:6 4.466400
6 u_destuffer\/_15_ u_destuffer\/_15_:7 8.113400
7 u_destuffer\/_15_ u_destuffer\/_31_:A2 0.000000
8 u_destuffer\/_15_ u_destuffer\/_30_:ZN 0.000000
*END

*D_NET u_destuffer\/ones_run\[0\] 4.357651
*CONN
*P u_destuffer\/ones_run\[0\] B
*I u_destuffer\/_33_:Q B
*I u_destuffer\/_30_:B B
*I u_destuffer\/_23_:I B
*I u_destuffer\/_17_:A1 B
*CAP
1 u_destuffer\/ones_run[0] 4.357651
*RES
1 u_destuffer\/ones_run[0] u_destuffer\/ones_run\[0\]:2 32.770300
2 u_destuffer\/ones_run[0] u_destuffer\/ones_run\[0\]:3 34.048700
3 u_destuffer\/ones_run[0] u_destuffer\/ones_run\[0\]:4 16.573300
4 u_destuffer\/ones_run[0] u_destuffer\/ones_run\[0\]:5 13.948300
5 u_destuffer\/ones_run[0] u_destuffer\/ones_run\[0\]:6 27.151500
6 u_destuffer\/ones_run[0] u_destuffer\/ones_run\[0\]:7 46.575400
7 u_destuffer\/ones_run[0] u_destuffer\/ones_run\[0\]:8 36.333700
8 u_destuffer\/ones_run[0] u_destuffer\/ones_run\[0\]:9 36.004200
9 u_destuffer\/ones_run[0] u_destuffer\/ones_run\[0\]:10 18.202400
10 u_destuffer\/ones_run[0] u_destuffer\/ones_run\[0\]:11 65.344200
11 u_destuffer\/ones_run[0] u_destuffer\/ones_run\[0\]:12 54.767300
12 u_destuffer\/ones_run[0] u_destuffer\/ones_run\[0\]:13 54.581600
13 u_destuffer\/ones_run[0] u_destuffer\/_33_:Q 0.000000
14 u_destuffer\/ones_run[0] u_destuffer\/_30_:B 0.000000
15 u_destuffer\/ones_run[0] u_destuffer\/_23_:I 0.000000
16 u_destuffer\/ones_run[0] u_destuffer\/_17_:A1 0.000000
*END

*D_NET u_destuffer\/ones_run\[1\] 5.894255
*CONN
*P u_destuffer\/ones_run\[1\] B
*I u_destuffer\/_34_:Q B
*I u_destuffer\/_28_:A1 B
*I u_destuffer\/_25_:A1 B
*I u_destuffer\/_16_:A1 B
*CAP
1 u_destuffer\/ones_run[1] 5.884338
2 u_destuffer\/ones_run[1] u_destuffer\/ones_run[2] 0.009917
*RES
1 u_destuffer\/ones_run[1] u_destuffer\/ones_run\[1\]:2 53.412700
2 u_destuffer\/ones_run[1] u_destuffer\/ones_run\[1\]:3 65.623600
3 u_destuffer\/ones_run[1] u_destuffer\/ones_run\[1\]:4 16.455100
4 u_destuffer\/ones_run[1] u_destuffer\/ones_run\[1\]:5 11.194400
5 u_destuffer\/ones_run[1] u_destuffer\/ones_run\[1\]:6 10.503700
6 u_destuffer\/ones_run[1] u_destuffer\/ones_run\[1\]:7 15.334300
7 u_destuffer\/ones_run[1] u_destuffer\/ones_run\[1\]:8 36.064400
8 u_destuffer\/ones_run[1] u_destuffer\/ones_run\[1\]:9 43.430000
9 u_destuffer\/ones_run[1] u_destuffer\/ones_run\[1\]:10 35.958900
10 u_destuffer\/ones_run[1] u_destuffer\/ones_run\[1\]:11 43.999700
11 u_destuffer\/ones_run[1] u_destuffer\/ones_run\[1\]:12 31.077500
12 u_destuffer\/ones_run[1] u_destuffer\/ones_run\[1\]:13 56.786000
13 u_destuffer\/ones_run[1] u_destuffer\/ones_run\[1\]:14 85.851800
14 u_destuffer\/ones_run[1] u_destuffer\/ones_run\[1\]:15 30.653100
15 u_destuffer\/ones_run[1] u_destuffer\/ones_run\[1\]:16 65.311400
16 u_destuffer\/ones_run[1] u_destuffer\/ones_run\[1\]:17 40.031900
17 u_destuffer\/ones_run[1] u_destuffer\/_34_:Q 0.000000
18 u_destuffer\/ones_run[1] u_destuffer\/_28_:A1 0.000000
19 u_destuffer\/ones_run[1] u_destuffer\/_25_:A1 0.000000
20 u_destuffer\/ones_run[1] u_destuffer\/_16_:A1 0.000000
*END

*D_NET u_destuffer\/ones_run\[2\] 4.196150
*CONN
*P u_destuffer\/ones_run\[2\] B
*I u_destuffer\/_35_:Q B
*I u_destuffer\/_28_:B B
*I u_destuffer\/_16_:A2 B
*CAP
1 u_destuffer\/ones_run[2] 4.196150
*RES
1 u_destuffer\/ones_run[2] u_destuffer\/ones_run\[2\]:2 20.326200
2 u_destuffer\/ones_run[2] u_destuffer\/ones_run\[2\]:3 8.897700
3 u_destuffer\/ones_run[2] u_destuffer\/ones_run\[2\]:4 25.174400
4 u_destuffer\/ones_run[2] u_destuffer\/ones_run\[2\]:5 30.551700
5 u_destuffer\/ones_run[2] u_destuffer\/ones_run\[2\]:6 27.541300
6 u_destuffer\/ones_run[2] u_destuffer\/ones_run\[2\]:7 58.993500
7 u_destuffer\/ones_run[2] u_destuffer\/ones_run\[2\]:8 37.183600
8 u_destuffer\/ones_run[2] u_destuffer\/ones_run\[2\]:9 53.791900
9 u_destuffer\/ones_run[2] u_destuffer\/ones_run\[2\]:10 53.635400
10 u_destuffer\/ones_run[2] u_destuffer\/ones_run\[2\]:11 29.827900
11 u_destuffer\/ones_run[2] u_destuffer\/ones_run\[2\]:12 59.793000
12 u_destuffer\/ones_run[2] u_destuffer\/ones_run\[2\]:13 61.632700
13 u_destuffer\/ones_run[2] u_destuffer\/_35_:Q 0.000000
14 u_destuffer\/ones_run[2] u_destuffer\/_28_:B 0.000000
15 u_destuffer\/ones_run[2] u_destuffer\/_16_:A2 0.000000
*END

*D_NET u_encoder\/_0_ 2.032033
*CONN
*P u_encoder\/_0_ B
*I u_encoder\/_6_:D B
*I u_encoder\/_5_:Z B
*CAP
1 u_encoder\/_0_ 2.027405
2 u_encoder\/_0_ u_eop_detector\/_08_ 0.004628
*RES
1 u_encoder\/_0_ u_encoder\/_0_:2 20.105500
2 u_encoder\/_0_ u_encoder\/_0_:3 22.328600
3 u_encoder\/_0_ u_encoder\/_0_:4 8.236700
4 u_encoder\/_0_ u_encoder\/_0_:5 11.184400
5 u_encoder\/_0_ u_encoder\/_0_:6 11.335100
6 u_encoder\/_0_ u_encoder\/_0_:7 13.520500
7 u_encoder\/_0_ u_encoder\/_6_:D 0.000000
8 u_encoder\/_0_ u_encoder\/_5_:Z 0.000000
*END

*D_NET u_encoder\/_1_ 4.451009
*CONN
*P u_encoder\/_1_ B
*I u_encoder\/_4_:A2 B
*I u_encoder\/_3_:ZN B
*CAP
1 u_encoder\/_1_ 4.451009
*RES
1 u_encoder\/_1_ u_encoder\/_1_:2 21.304200
2 u_encoder\/_1_ u_encoder\/_1_:3 17.425800
3 u_encoder\/_1_ u_encoder\/_1_:4 19.913500
4 u_encoder\/_1_ u_encoder\/_1_:5 15.578200
5 u_encoder\/_1_ u_encoder\/_1_:6 8.067200
6 u_encoder\/_1_ u_encoder\/_1_:7 9.314800
7 u_encoder\/_1_ u_encoder\/_1_:8 10.334100
8 u_encoder\/_1_ u_encoder\/_1_:9 8.535800
9 u_encoder\/_1_ u_encoder\/_1_:10 9.621800
10 u_encoder\/_1_ u_encoder\/_1_:11 6.428400
11 u_encoder\/_1_ u_encoder\/_1_:12 5.876500
12 u_encoder\/_1_ u_encoder\/_1_:13 3.507400
13 u_encoder\/_1_ u_encoder\/_1_:14 3.816400
14 u_encoder\/_1_ u_encoder\/_1_:15 7.405100
15 u_encoder\/_1_ u_encoder\/_1_:16 12.974100
16 u_encoder\/_1_ u_encoder\/_1_:17 11.286800
17 u_encoder\/_1_ u_encoder\/_1_:18 7.993100
18 u_encoder\/_1_ u_encoder\/_1_:19 4.511700
19 u_encoder\/_1_ u_encoder\/_1_:20 3.220500
20 u_encoder\/_1_ u_encoder\/_1_:21 4.988300
21 u_encoder\/_1_ u_encoder\/_4_:A2 0.000000
22 u_encoder\/_1_ u_encoder\/_3_:ZN 0.000000
*END

*D_NET u_encoder\/_2_ 1.954253
*CONN
*P u_encoder\/_2_ B
*I u_encoder\/_5_:I1 B
*I u_encoder\/_4_:Z B
*CAP
1 u_encoder\/_2_ 1.954253
*RES
1 u_encoder\/_2_ u_encoder\/_2_:2 24.558500
2 u_encoder\/_2_ u_encoder\/_2_:3 18.028300
3 u_encoder\/_2_ u_encoder\/_2_:4 13.543500
4 u_encoder\/_2_ u_encoder\/_2_:5 8.558500
5 u_encoder\/_2_ u_encoder\/_2_:6 14.682400
6 u_encoder\/_2_ u_encoder\/_2_:7 6.631100
7 u_encoder\/_2_ u_encoder\/_5_:I1 0.000000
8 u_encoder\/_2_ u_encoder\/_4_:Z 0.000000
*END

*D_NET u_eop_detector\/_00_ 1.722496
*CONN
*P u_eop_detector\/_00_ B
*I u_eop_detector\/_54_:D B
*I u_eop_detector\/_33_:ZN B
*CAP
1 u_eop_detector\/_00_ 1.717642
2 u_eop_detector\/_00_ u_eop_detector\/_09_ 0.000226
3 u_eop_detector\/_00_ u_eop_detector\/_10_ 0.004628
*RES
1 u_eop_detector\/_00_ u_eop_detector\/_00_:2 20.691800
2 u_eop_detector\/_00_ u_eop_detector\/_00_:3 24.578700
3 u_eop_detector\/_00_ u_eop_detector\/_00_:4 17.412100
4 u_eop_detector\/_00_ u_eop_detector\/_00_:5 10.952400
5 u_eop_detector\/_00_ u_eop_detector\/_00_:6 10.750900
6 u_eop_detector\/_00_ u_eop_detector\/_54_:D 0.000000
7 u_eop_detector\/_00_ u_eop_detector\/_33_:ZN 0.000000
*END

*D_NET u_eop_detector\/_01_ 1.938501
*CONN
*P u_eop_detector\/_01_ B
*I u_eop_detector\/_58_:D B
*I u_eop_detector\/_37_:ZN B
*CAP
1 u_eop_detector\/_01_ 1.933047
2 u_eop_detector\/_01_ u_eop_detector\/_16_ 0.005454
*RES
1 u_eop_detector\/_01_ u_eop_detector\/_01_:2 17.956200
2 u_eop_detector\/_01_ u_eop_detector\/_01_:3 21.671500
3 u_eop_detector\/_01_ u_eop_detector\/_01_:4 7.351300
4 u_eop_detector\/_01_ u_eop_detector\/_01_:5 11.197100
5 u_eop_detector\/_01_ u_eop_detector\/_01_:6 3.522600
6 u_eop_detector\/_01_ u_eop_detector\/_01_:7 0.689500
7 u_eop_detector\/_01_ u_eop_detector\/_01_:8 12.300200
8 u_eop_detector\/_01_ u_eop_detector\/_01_:9 10.590200
9 u_eop_detector\/_01_ u_eop_detector\/_58_:D 0.000000
10 u_eop_detector\/_01_ u_eop_detector\/_37_:ZN 0.000000
*END

*D_NET u_eop_detector\/_02_ 1.819585
*CONN
*P u_eop_detector\/_02_ B
*I u_eop_detector\/_57_:D B
*I u_eop_detector\/_40_:ZN B
*CAP
1 u_eop_detector\/_02_ 1.819585
*RES
1 u_eop_detector\/_02_ u_eop_detector\/_02_:2 14.463100
2 u_eop_detector\/_02_ u_eop_detector\/_02_:3 21.571200
3 u_eop_detector\/_02_ u_eop_detector\/_02_:4 12.477200
4 u_eop_detector\/_02_ u_eop_detector\/_02_:5 7.391900
5 u_eop_detector\/_02_ u_eop_detector\/_02_:6 1.911600
6 u_eop_detector\/_02_ u_eop_detector\/_02_:7 13.751000
7 u_eop_detector\/_02_ u_eop_detector\/_02_:8 13.667700
8 u_eop_detector\/_02_ u_eop_detector\/_57_:D 0.000000
9 u_eop_detector\/_02_ u_eop_detector\/_40_:ZN 0.000000
*END

*D_NET u_eop_detector\/_03_ 2.332340
*CONN
*P u_eop_detector\/_03_ B
*I u_eop_detector\/_56_:D B
*I u_eop_detector\/_44_:ZN B
*CAP
1 u_eop_detector\/_03_ 2.310955
2 u_eop_detector\/_03_ u_eop_detector\/_09_ 0.003801
3 u_eop_detector\/_03_ u_eop_detector\/_11_ 0.009255
4 u_eop_detector\/_03_ u_eop_detector\/_17_ 0.008329
*RES
1 u_eop_detector\/_03_ u_eop_detector\/_03_:2 19.033500
2 u_eop_detector\/_03_ u_eop_detector\/_03_:3 24.240600
3 u_eop_detector\/_03_ u_eop_detector\/_03_:4 4.113000
4 u_eop_detector\/_03_ u_eop_detector\/_03_:5 12.308600
5 u_eop_detector\/_03_ u_eop_detector\/_03_:6 14.420500
6 u_eop_detector\/_03_ u_eop_detector\/_03_:7 13.041800
7 u_eop_detector\/_03_ u_eop_detector\/_56_:D 0.000000
8 u_eop_detector\/_03_ u_eop_detector\/_44_:ZN 0.000000
*END

*D_NET u_eop_detector\/_04_ 1.735271
*CONN
*P u_eop_detector\/_04_ B
*I u_eop_detector\/_60_:D B
*I u_eop_detector\/_47_:ZN B
*CAP
1 u_eop_detector\/_04_ 1.726015
2 u_eop_detector\/_04_ u_eop_detector\/_15_ 0.004628
3 u_eop_detector\/_04_ u_eop_detector\/_23_ 0.004628
*RES
1 u_eop_detector\/_04_ u_eop_detector\/_04_:2 24.249700
2 u_eop_detector\/_04_ u_eop_detector\/_04_:3 17.376800
3 u_eop_detector\/_04_ u_eop_detector\/_04_:4 2.669800
4 u_eop_detector\/_04_ u_eop_detector\/_04_:5 6.734700
5 u_eop_detector\/_04_ u_eop_detector\/_04_:6 15.600800
6 u_eop_detector\/_04_ u_eop_detector\/_04_:7 18.031900
7 u_eop_detector\/_04_ u_eop_detector\/_60_:D 0.000000
8 u_eop_detector\/_04_ u_eop_detector\/_47_:ZN 0.000000
*END

*D_NET u_eop_detector\/_05_ 1.717997
*CONN
*P u_eop_detector\/_05_ B
*I u_eop_detector\/_59_:D B
*I u_eop_detector\/_50_:ZN B
*CAP
1 u_eop_detector\/_05_ 1.708742
2 u_eop_detector\/_05_ u_eop_detector\/_09_ 0.009255
*RES
1 u_eop_detector\/_05_ u_eop_detector\/_05_:2 14.054400
2 u_eop_detector\/_05_ u_eop_detector\/_05_:3 5.890500
3 u_eop_detector\/_05_ u_eop_detector\/_05_:4 14.750200
4 u_eop_detector\/_05_ u_eop_detector\/_05_:5 23.471500
5 u_eop_detector\/_05_ u_eop_detector\/_05_:6 12.731500
6 u_eop_detector\/_05_ u_eop_detector\/_05_:7 13.308100
7 u_eop_detector\/_05_ u_eop_detector\/_59_:D 0.000000
8 u_eop_detector\/_05_ u_eop_detector\/_50_:ZN 0.000000
*END

*D_NET u_eop_detector\/_06_ 1.444970
*CONN
*P u_eop_detector\/_06_ B
*I u_eop_detector\/_61_:D B
*I u_eop_detector\/_51_:ZN B
*CAP
1 u_eop_detector\/_06_ 1.444970
*RES
1 u_eop_detector\/_06_ u_eop_detector\/_06_:2 4.943600
2 u_eop_detector\/_06_ u_eop_detector\/_06_:3 25.912000
3 u_eop_detector\/_06_ u_eop_detector\/_06_:4 14.489600
4 u_eop_detector\/_06_ u_eop_detector\/_06_:5 19.047100
5 u_eop_detector\/_06_ u_eop_detector\/_06_:6 18.749800
6 u_eop_detector\/_06_ u_eop_detector\/_61_:D 0.000000
7 u_eop_detector\/_06_ u_eop_detector\/_51_:ZN 0.000000
*END

*D_NET u_eop_detector\/_07_ 1.642456
*CONN
*P u_eop_detector\/_07_ B
*I u_eop_detector\/_55_:D B
*I u_eop_detector\/_53_:Z B
*CAP
1 u_eop_detector\/_07_ 1.637828
2 u_eop_detector\/_07_ u_eop_detector\/_12_ 0.004628
*RES
1 u_eop_detector\/_07_ u_eop_detector\/_07_:2 26.711300
2 u_eop_detector\/_07_ u_eop_detector\/_07_:3 15.251800
3 u_eop_detector\/_07_ u_eop_detector\/_07_:4 25.097800
4 u_eop_detector\/_07_ u_eop_detector\/_07_:5 16.855100
5 u_eop_detector\/_07_ u_eop_detector\/_55_:D 0.000000
6 u_eop_detector\/_07_ u_eop_detector\/_53_:Z 0.000000
*END

*D_NET u_eop_detector\/_08_ 3.132483
*CONN
*P u_eop_detector\/_08_ B
*I u_eop_detector\/_28_:A2 B
*I u_eop_detector\/_27_:ZN B
*CAP
1 u_eop_detector\/_08_ 3.132483
*RES
1 u_eop_detector\/_08_ u_eop_detector\/_08_:2 21.003400
2 u_eop_detector\/_08_ u_eop_detector\/_08_:3 17.443000
3 u_eop_detector\/_08_ u_eop_detector\/_08_:4 24.402900
4 u_eop_detector\/_08_ u_eop_detector\/_08_:5 13.971000
5 u_eop_detector\/_08_ u_eop_detector\/_08_:6 14.041900
6 u_eop_detector\/_08_ u_eop_detector\/_28_:A2 0.000000
7 u_eop_detector\/_08_ u_eop_detector\/_27_:ZN 0.000000
*END

*D_NET u_eop_detector\/_09_ 15.242356
*CONN
*P u_eop_detector\/_09_ B
*I u_eop_detector\/_52_:A4 B
*I u_eop_detector\/_51_:A2 B
*I u_eop_detector\/_50_:A1 B
*I u_eop_detector\/_47_:B B
*I u_eop_detector\/_44_:A1 B
*I u_eop_detector\/_40_:C B
*I u_eop_detector\/_37_:A1 B
*I u_eop_detector\/_33_:A1 B
*I u_eop_detector\/_28_:ZN B
*CAP
1 u_eop_detector\/_09_ 15.101127
2 u_eop_detector\/_09_ u_eop_detector\/_10_ 0.008429
3 u_eop_detector\/_09_ u_eop_detector\/_11_ 0.008429
4 u_eop_detector\/_09_ u_eop_detector\/_12_ 0.004628
5 u_eop_detector\/_09_ u_eop_detector\/_14_ 0.013057
6 u_eop_detector\/_09_ u_eop_detector\/_15_ 0.029089
7 u_eop_detector\/_09_ u_eop_detector\/_16_ 0.013883
8 u_eop_detector\/_09_ u_eop_detector\/_18_ 0.004628
9 u_eop_detector\/_09_ u_eop_detector\/_24_ 0.004628
10 u_eop_detector\/_09_ u_eop_detector\/_25_ 0.009255
11 u_eop_detector\/_09_ u_eop_detector\/se0_count[1] 0.004628
12 u_eop_detector\/_09_ u_eop_detector\/se0_count[2] 0.013883
13 u_eop_detector\/_09_ u_eop_detector\/se0_count[3] 0.013883
14 u_eop_detector\/_09_ u_eop_detector\/se0_count[4] 0.004628
15 u_eop_detector\/_09_ u_eop_detector\/se0_count[5] 0.008181
*RES
1 u_eop_detector\/_09_ u_eop_detector\/_09_:2 46.242100
2 u_eop_detector\/_09_ u_eop_detector\/_09_:3 55.421100
3 u_eop_detector\/_09_ u_eop_detector\/_09_:4 53.535200
4 u_eop_detector\/_09_ u_eop_detector\/_09_:5 40.299600
5 u_eop_detector\/_09_ u_eop_detector\/_09_:6 52.355400
6 u_eop_detector\/_09_ u_eop_detector\/_09_:7 14.146400
7 u_eop_detector\/_09_ u_eop_detector\/_09_:8 32.642600
8 u_eop_detector\/_09_ u_eop_detector\/_09_:9 26.741400
9 u_eop_detector\/_09_ u_eop_detector\/_09_:10 56.517300
10 u_eop_detector\/_09_ u_eop_detector\/_09_:11 11.131200
11 u_eop_detector\/_09_ u_eop_detector\/_09_:12 50.261900
12 u_eop_detector\/_09_ u_eop_detector\/_09_:13 45.377200
13 u_eop_detector\/_09_ u_eop_detector\/_09_:14 37.077000
14 u_eop_detector\/_09_ u_eop_detector\/_09_:15 36.364000
15 u_eop_detector\/_09_ u_eop_detector\/_09_:16 43.902500
16 u_eop_detector\/_09_ u_eop_detector\/_09_:17 37.312400
17 u_eop_detector\/_09_ u_eop_detector\/_09_:18 48.565600
18 u_eop_detector\/_09_ u_eop_detector\/_09_:19 43.084500
19 u_eop_detector\/_09_ u_eop_detector\/_09_:20 30.717000
20 u_eop_detector\/_09_ u_eop_detector\/_09_:21 59.932500
21 u_eop_detector\/_09_ u_eop_detector\/_09_:22 61.174600
22 u_eop_detector\/_09_ u_eop_detector\/_52_:A4 0.000000
23 u_eop_detector\/_09_ u_eop_detector\/_51_:A2 0.000000
24 u_eop_detector\/_09_ u_eop_detector\/_50_:A1 0.000000
25 u_eop_detector\/_09_ u_eop_detector\/_47_:B 0.000000
26 u_eop_detector\/_09_ u_eop_detector\/_44_:A1 0.000000
27 u_eop_detector\/_09_ u_eop_detector\/_40_:C 0.000000
28 u_eop_detector\/_09_ u_eop_detector\/_37_:A1 0.000000
29 u_eop_detector\/_09_ u_eop_detector\/_33_:A1 0.000000
30 u_eop_detector\/_09_ u_eop_detector\/_28_:ZN 0.000000
*END

*D_NET u_eop_detector\/_10_ 8.416259
*CONN
*P u_eop_detector\/_10_ B
*I u_eop_detector\/_42_:A2 B
*I u_eop_detector\/_41_:A2 B
*I u_eop_detector\/_35_:A4 B
*I u_eop_detector\/_32_:A1 B
*I u_eop_detector\/_29_:Z B
*CAP
1 u_eop_detector\/_10_ 8.366779
2 u_eop_detector\/_10_ u_eop_detector\/_12_ 0.004628
3 u_eop_detector\/_10_ u_eop_detector\/_13_ 0.016095
4 u_eop_detector\/_10_ u_eop_detector\/_14_ 0.011073
5 u_eop_detector\/_10_ u_eop_detector\/_15_ 0.003801
6 u_eop_detector\/_10_ u_eop_detector\/_18_ 0.009255
7 u_eop_detector\/_10_ u_eop_detector\/se0_count[1] 0.004628
*RES
1 u_eop_detector\/_10_ u_eop_detector\/_10_:2 73.595000
2 u_eop_detector\/_10_ u_eop_detector\/_10_:3 64.735100
3 u_eop_detector\/_10_ u_eop_detector\/_10_:4 36.661500
4 u_eop_detector\/_10_ u_eop_detector\/_10_:5 5.841900
5 u_eop_detector\/_10_ u_eop_detector\/_10_:6 2.042900
6 u_eop_detector\/_10_ u_eop_detector\/_10_:7 12.754100
7 u_eop_detector\/_10_ u_eop_detector\/_10_:8 25.260000
8 u_eop_detector\/_10_ u_eop_detector\/_10_:9 18.696300
9 u_eop_detector\/_10_ u_eop_detector\/_10_:10 11.520100
10 u_eop_detector\/_10_ u_eop_detector\/_10_:11 22.572800
11 u_eop_detector\/_10_ u_eop_detector\/_10_:12 21.865300
12 u_eop_detector\/_10_ u_eop_detector\/_10_:13 46.593300
13 u_eop_detector\/_10_ u_eop_detector\/_10_:14 37.094000
14 u_eop_detector\/_10_ u_eop_detector\/_10_:15 43.399600
15 u_eop_detector\/_10_ u_eop_detector\/_10_:16 25.368400
16 u_eop_detector\/_10_ u_eop_detector\/_10_:17 22.266100
17 u_eop_detector\/_10_ u_eop_detector\/_10_:18 28.570700
18 u_eop_detector\/_10_ u_eop_detector\/_10_:19 31.842900
19 u_eop_detector\/_10_ u_eop_detector\/_10_:20 31.009600
20 u_eop_detector\/_10_ u_eop_detector\/_10_:21 23.268600
21 u_eop_detector\/_10_ u_eop_detector\/_10_:22 19.403100
22 u_eop_detector\/_10_ u_eop_detector\/_10_:23 27.137900
23 u_eop_detector\/_10_ u_eop_detector\/_42_:A2 0.000000
24 u_eop_detector\/_10_ u_eop_detector\/_41_:A2 0.000000
25 u_eop_detector\/_10_ u_eop_detector\/_35_:A4 0.000000
26 u_eop_detector\/_10_ u_eop_detector\/_32_:A1 0.000000
27 u_eop_detector\/_10_ u_eop_detector\/_29_:Z 0.000000
*END

*D_NET u_eop_detector\/_11_ 4.841532
*CONN
*P u_eop_detector\/_11_ B
*I u_eop_detector\/_35_:A2 B
*I u_eop_detector\/_31_:A2 B
*I u_eop_detector\/_30_:ZN B
*CAP
1 u_eop_detector\/_11_ 4.823913
2 u_eop_detector\/_11_ u_eop_detector\/_15_ 0.010017
3 u_eop_detector\/_11_ u_eop_detector\/_17_ 0.003801
4 u_eop_detector\/_11_ u_eop_detector\/se0_count[1] 0.003801
*RES
1 u_eop_detector\/_11_ u_eop_detector\/_11_:2 41.412300
2 u_eop_detector\/_11_ u_eop_detector\/_11_:3 47.911700
3 u_eop_detector\/_11_ u_eop_detector\/_11_:4 46.287700
4 u_eop_detector\/_11_ u_eop_detector\/_11_:5 44.967800
5 u_eop_detector\/_11_ u_eop_detector\/_11_:6 14.714900
6 u_eop_detector\/_11_ u_eop_detector\/_11_:7 15.447000
7 u_eop_detector\/_11_ u_eop_detector\/_11_:8 47.101100
8 u_eop_detector\/_11_ u_eop_detector\/_11_:9 17.133200
9 u_eop_detector\/_11_ u_eop_detector\/_11_:10 17.810300
10 u_eop_detector\/_11_ u_eop_detector\/_11_:11 63.198200
11 u_eop_detector\/_11_ u_eop_detector\/_11_:12 41.787500
12 u_eop_detector\/_11_ u_eop_detector\/_11_:13 69.796400
13 u_eop_detector\/_11_ u_eop_detector\/_35_:A2 0.000000
14 u_eop_detector\/_11_ u_eop_detector\/_31_:A2 0.000000
15 u_eop_detector\/_11_ u_eop_detector\/_30_:ZN 0.000000
*END

*D_NET u_eop_detector\/_12_ 4.148089
*CONN
*P u_eop_detector\/_12_ B
*I u_eop_detector\/_53_:A1 B
*I u_eop_detector\/_32_:A2 B
*I u_eop_detector\/_31_:ZN B
*CAP
1 u_eop_detector\/_12_ 4.127034
2 u_eop_detector\/_12_ u_eop_detector\/_13_ 0.004628
3 u_eop_detector\/_12_ u_eop_detector\/_17_ 0.010973
4 u_eop_detector\/_12_ u_eop_detector\/_26_ 0.004628
5 u_eop_detector\/_12_ u_eop_detector\/se0_count[3] 0.000826
*RES
1 u_eop_detector\/_12_ u_eop_detector\/_12_:2 36.863800
2 u_eop_detector\/_12_ u_eop_detector\/_12_:3 35.932600
3 u_eop_detector\/_12_ u_eop_detector\/_12_:4 14.924300
4 u_eop_detector\/_12_ u_eop_detector\/_12_:5 25.935200
5 u_eop_detector\/_12_ u_eop_detector\/_12_:6 11.280200
6 u_eop_detector\/_12_ u_eop_detector\/_12_:7 25.183200
7 u_eop_detector\/_12_ u_eop_detector\/_12_:8 20.092000
8 u_eop_detector\/_12_ u_eop_detector\/_12_:9 22.637600
9 u_eop_detector\/_12_ u_eop_detector\/_53_:A1 0.000000
10 u_eop_detector\/_12_ u_eop_detector\/_32_:A2 0.000000
11 u_eop_detector\/_12_ u_eop_detector\/_31_:ZN 0.000000
*END

*D_NET u_eop_detector\/_13_ 2.090596
*CONN
*P u_eop_detector\/_13_ B
*I u_eop_detector\/_33_:A2 B
*I u_eop_detector\/_32_:ZN B
*CAP
1 u_eop_detector\/_13_ 2.090596
*RES
1 u_eop_detector\/_13_ u_eop_detector\/_13_:2 18.548800
2 u_eop_detector\/_13_ u_eop_detector\/_13_:3 24.436600
3 u_eop_detector\/_13_ u_eop_detector\/_13_:4 13.691800
4 u_eop_detector\/_13_ u_eop_detector\/_13_:5 13.616700
5 u_eop_detector\/_13_ u_eop_detector\/_13_:6 7.642900
6 u_eop_detector\/_13_ u_eop_detector\/_13_:7 8.714600
7 u_eop_detector\/_13_ u_eop_detector\/_33_:A2 0.000000
8 u_eop_detector\/_13_ u_eop_detector\/_32_:ZN 0.000000
*END

*D_NET u_eop_detector\/_14_ 5.472006
*CONN
*P u_eop_detector\/_14_ B
*I u_eop_detector\/_40_:A1 B
*I u_eop_detector\/_35_:A3 B
*I u_eop_detector\/_34_:ZN B
*CAP
1 u_eop_detector\/_14_ 5.454321
2 u_eop_detector\/_14_ u_eop_detector\/_15_ 0.013057
3 u_eop_detector\/_14_ u_eop_detector\/_18_ 0.004628
*RES
1 u_eop_detector\/_14_ u_eop_detector\/_14_:2 82.199500
2 u_eop_detector\/_14_ u_eop_detector\/_14_:3 58.044300
3 u_eop_detector\/_14_ u_eop_detector\/_14_:4 9.741700
4 u_eop_detector\/_14_ u_eop_detector\/_14_:5 10.156600
5 u_eop_detector\/_14_ u_eop_detector\/_14_:6 38.633600
6 u_eop_detector\/_14_ u_eop_detector\/_14_:7 36.466700
7 u_eop_detector\/_14_ u_eop_detector\/_14_:8 36.569800
8 u_eop_detector\/_14_ u_eop_detector\/_14_:9 52.680900
9 u_eop_detector\/_14_ u_eop_detector\/_14_:10 39.247300
10 u_eop_detector\/_14_ u_eop_detector\/_14_:11 17.097600
11 u_eop_detector\/_14_ u_eop_detector\/_14_:12 36.352500
12 u_eop_detector\/_14_ u_eop_detector\/_14_:13 51.890100
13 u_eop_detector\/_14_ u_eop_detector\/_40_:A1 0.000000
14 u_eop_detector\/_14_ u_eop_detector\/_35_:A3 0.000000
15 u_eop_detector\/_14_ u_eop_detector\/_34_:ZN 0.000000
*END

*D_NET u_eop_detector\/_15_ 11.924658
*CONN
*P u_eop_detector\/_15_ B
*I u_eop_detector\/_49_:A2 B
*I u_eop_detector\/_48_:A3 B
*I u_eop_detector\/_46_:A3 B
*I u_eop_detector\/_40_:B B
*I u_eop_detector\/_36_:A2 B
*I u_eop_detector\/_35_:ZN B
*CAP
1 u_eop_detector\/_15_ 11.815223
2 u_eop_detector\/_15_ u_eop_detector\/_16_ 0.004628
3 u_eop_detector\/_15_ u_eop_detector\/_17_ 0.011785
4 u_eop_detector\/_15_ u_eop_detector\/_18_ 0.004628
5 u_eop_detector\/_15_ u_eop_detector\/_23_ 0.037022
6 u_eop_detector\/_15_ u_eop_detector\/_25_ 0.010908
7 u_eop_detector\/_15_ u_eop_detector\/se0_count[1] 0.003801
8 u_eop_detector\/_15_ u_eop_detector\/se0_count[2] 0.017714
9 u_eop_detector\/_15_ u_eop_detector\/se0_count[3] 0.015148
10 u_eop_detector\/_15_ u_eop_detector\/se0_count[5] 0.003801
*RES
1 u_eop_detector\/_15_ u_eop_detector\/_15_:2 24.657700
2 u_eop_detector\/_15_ u_eop_detector\/_15_:3 13.589800
3 u_eop_detector\/_15_ u_eop_detector\/_15_:4 36.687700
4 u_eop_detector\/_15_ u_eop_detector\/_15_:5 30.193400
5 u_eop_detector\/_15_ u_eop_detector\/_15_:6 22.867100
6 u_eop_detector\/_15_ u_eop_detector\/_15_:7 9.946400
7 u_eop_detector\/_15_ u_eop_detector\/_15_:8 35.899700
8 u_eop_detector\/_15_ u_eop_detector\/_15_:9 36.263100
9 u_eop_detector\/_15_ u_eop_detector\/_15_:10 24.017900
10 u_eop_detector\/_15_ u_eop_detector\/_15_:11 30.695900
11 u_eop_detector\/_15_ u_eop_detector\/_15_:12 34.119100
12 u_eop_detector\/_15_ u_eop_detector\/_15_:13 23.392100
13 u_eop_detector\/_15_ u_eop_detector\/_15_:14 23.634800
14 u_eop_detector\/_15_ u_eop_detector\/_15_:15 25.398600
15 u_eop_detector\/_15_ u_eop_detector\/_15_:16 16.580400
16 u_eop_detector\/_15_ u_eop_detector\/_15_:17 20.107300
17 u_eop_detector\/_15_ u_eop_detector\/_15_:18 15.579600
18 u_eop_detector\/_15_ u_eop_detector\/_15_:19 22.394300
19 u_eop_detector\/_15_ u_eop_detector\/_15_:20 24.119900
20 u_eop_detector\/_15_ u_eop_detector\/_15_:21 4.750600
21 u_eop_detector\/_15_ u_eop_detector\/_15_:22 3.015700
22 u_eop_detector\/_15_ u_eop_detector\/_15_:23 9.532200
23 u_eop_detector\/_15_ u_eop_detector\/_15_:24 11.292600
24 u_eop_detector\/_15_ u_eop_detector\/_15_:25 14.817100
25 u_eop_detector\/_15_ u_eop_detector\/_15_:26 13.054900
26 u_eop_detector\/_15_ u_eop_detector\/_15_:27 21.870800
27 u_eop_detector\/_15_ u_eop_detector\/_15_:28 18.343500
28 u_eop_detector\/_15_ u_eop_detector\/_15_:29 17.264900
29 u_eop_detector\/_15_ u_eop_detector\/_15_:30 1.572300
30 u_eop_detector\/_15_ u_eop_detector\/_15_:31 0.687800
31 u_eop_detector\/_15_ u_eop_detector\/_15_:32 8.016500
32 u_eop_detector\/_15_ u_eop_detector\/_15_:33 6.502900
33 u_eop_detector\/_15_ u_eop_detector\/_49_:A2 0.000000
34 u_eop_detector\/_15_ u_eop_detector\/_48_:A3 0.000000
35 u_eop_detector\/_15_ u_eop_detector\/_46_:A3 0.000000
36 u_eop_detector\/_15_ u_eop_detector\/_40_:B 0.000000
37 u_eop_detector\/_15_ u_eop_detector\/_36_:A2 0.000000
38 u_eop_detector\/_15_ u_eop_detector\/_35_:ZN 0.000000
*END

*D_NET u_eop_detector\/_16_ 3.082046
*CONN
*P u_eop_detector\/_16_ B
*I u_eop_detector\/_37_:A2 B
*I u_eop_detector\/_36_:ZN B
*CAP
1 u_eop_detector\/_16_ 3.073617
2 u_eop_detector\/_16_ u_eop_detector\/se0_count[2] 0.008429
*RES
1 u_eop_detector\/_16_ u_eop_detector\/_16_:2 30.963800
2 u_eop_detector\/_16_ u_eop_detector\/_16_:3 27.415100
3 u_eop_detector\/_16_ u_eop_detector\/_16_:4 21.308400
4 u_eop_detector\/_16_ u_eop_detector\/_16_:5 15.712300
5 u_eop_detector\/_16_ u_eop_detector\/_16_:6 29.995500
6 u_eop_detector\/_16_ u_eop_detector\/_16_:7 28.421600
7 u_eop_detector\/_16_ u_eop_detector\/_16_:8 17.223100
8 u_eop_detector\/_16_ u_eop_detector\/_16_:9 15.825900
9 u_eop_detector\/_16_ u_eop_detector\/_37_:A2 0.000000
10 u_eop_detector\/_16_ u_eop_detector\/_36_:ZN 0.000000
*END

*D_NET u_eop_detector\/_17_ 4.541938
*CONN
*P u_eop_detector\/_17_ B
*I u_eop_detector\/_51_:A1 B
*I u_eop_detector\/_43_:A1 B
*I u_eop_detector\/_39_:A1 B
*I u_eop_detector\/_38_:ZN B
*CAP
1 u_eop_detector\/_17_ 4.491788
2 u_eop_detector\/_17_ u_eop_detector\/_18_ 0.017679
3 u_eop_detector\/_17_ u_eop_detector\/se0_count[0] 0.013883
4 u_eop_detector\/_17_ u_eop_detector\/se0_count[5] 0.018588
*RES
1 u_eop_detector\/_17_ u_eop_detector\/_17_:2 31.670500
2 u_eop_detector\/_17_ u_eop_detector\/_17_:3 15.524000
3 u_eop_detector\/_17_ u_eop_detector\/_17_:4 47.059200
4 u_eop_detector\/_17_ u_eop_detector\/_17_:5 23.768300
5 u_eop_detector\/_17_ u_eop_detector\/_17_:6 38.646600
6 u_eop_detector\/_17_ u_eop_detector\/_17_:7 46.316000
7 u_eop_detector\/_17_ u_eop_detector\/_17_:8 24.124800
8 u_eop_detector\/_17_ u_eop_detector\/_17_:9 54.864200
9 u_eop_detector\/_17_ u_eop_detector\/_51_:A1 0.000000
10 u_eop_detector\/_17_ u_eop_detector\/_43_:A1 0.000000
11 u_eop_detector\/_17_ u_eop_detector\/_39_:A1 0.000000
12 u_eop_detector\/_17_ u_eop_detector\/_38_:ZN 0.000000
*END

*D_NET u_eop_detector\/_18_ 3.565219
*CONN
*P u_eop_detector\/_18_ B
*I u_eop_detector\/_41_:B B
*I u_eop_detector\/_40_:A2 B
*I u_eop_detector\/_39_:ZN B
*CAP
1 u_eop_detector\/_18_ 3.541345
2 u_eop_detector\/_18_ u_eop_detector\/_19_ 0.005363
3 u_eop_detector\/_18_ u_eop_detector\/_21_ 0.004628
4 u_eop_detector\/_18_ u_eop_detector\/se0_count[0] 0.009255
5 u_eop_detector\/_18_ u_eop_detector\/se0_count[1] 0.004628
*RES
1 u_eop_detector\/_18_ u_eop_detector\/_18_:2 31.525700
2 u_eop_detector\/_18_ u_eop_detector\/_18_:3 22.210600
3 u_eop_detector\/_18_ u_eop_detector\/_18_:4 31.275000
4 u_eop_detector\/_18_ u_eop_detector\/_18_:5 19.923400
5 u_eop_detector\/_18_ u_eop_detector\/_18_:6 34.403000
6 u_eop_detector\/_18_ u_eop_detector\/_18_:7 21.430400
7 u_eop_detector\/_18_ u_eop_detector\/_18_:8 24.304400
8 u_eop_detector\/_18_ u_eop_detector\/_41_:B 0.000000
9 u_eop_detector\/_18_ u_eop_detector\/_40_:A2 0.000000
10 u_eop_detector\/_18_ u_eop_detector\/_39_:ZN 0.000000
*END

*D_NET u_eop_detector\/_19_ 2.338647
*CONN
*P u_eop_detector\/_19_ B
*I u_eop_detector\/_44_:A2 B
*I u_eop_detector\/_41_:ZN B
*CAP
1 u_eop_detector\/_19_ 2.320335
2 u_eop_detector\/_19_ u_eop_detector\/_20_ 0.004429
3 u_eop_detector\/_19_ u_eop_detector\/_21_ 0.013883
*RES
1 u_eop_detector\/_19_ u_eop_detector\/_19_:2 19.064300
2 u_eop_detector\/_19_ u_eop_detector\/_19_:3 25.286900
3 u_eop_detector\/_19_ u_eop_detector\/_19_:4 8.393500
4 u_eop_detector\/_19_ u_eop_detector\/_19_:5 9.263700
5 u_eop_detector\/_19_ u_eop_detector\/_19_:6 13.411400
6 u_eop_detector\/_19_ u_eop_detector\/_19_:7 14.077400
7 u_eop_detector\/_19_ u_eop_detector\/_44_:A2 0.000000
8 u_eop_detector\/_19_ u_eop_detector\/_41_:ZN 0.000000
*END

*D_NET u_eop_detector\/_20_ 2.241986
*CONN
*P u_eop_detector\/_20_ B
*I u_eop_detector\/_43_:A2 B
*I u_eop_detector\/_42_:ZN B
*CAP
1 u_eop_detector\/_20_ 2.238185
2 u_eop_detector\/_20_ u_eop_detector\/se0_count[1] 0.003801
*RES
1 u_eop_detector\/_20_ u_eop_detector\/_20_:2 8.701200
2 u_eop_detector\/_20_ u_eop_detector\/_20_:3 17.418900
3 u_eop_detector\/_20_ u_eop_detector\/_20_:4 25.853700
4 u_eop_detector\/_20_ u_eop_detector\/_20_:5 16.829100
5 u_eop_detector\/_20_ u_eop_detector\/_20_:6 17.860400
6 u_eop_detector\/_20_ u_eop_detector\/_43_:A2 0.000000
7 u_eop_detector\/_20_ u_eop_detector\/_42_:ZN 0.000000
*END

*D_NET u_eop_detector\/_21_ 2.429618
*CONN
*P u_eop_detector\/_21_ B
*I u_eop_detector\/_44_:A3 B
*I u_eop_detector\/_43_:ZN B
*CAP
1 u_eop_detector\/_21_ 2.429618
*RES
1 u_eop_detector\/_21_ u_eop_detector\/_21_:2 19.166200
2 u_eop_detector\/_21_ u_eop_detector\/_21_:3 25.671400
3 u_eop_detector\/_21_ u_eop_detector\/_21_:4 8.259000
4 u_eop_detector\/_21_ u_eop_detector\/_21_:5 8.343600
5 u_eop_detector\/_21_ u_eop_detector\/_21_:6 14.263200
6 u_eop_detector\/_21_ u_eop_detector\/_21_:7 14.372800
7 u_eop_detector\/_21_ u_eop_detector\/_44_:A3 0.000000
8 u_eop_detector\/_21_ u_eop_detector\/_43_:ZN 0.000000
*END

*D_NET u_eop_detector\/_22_ 1.261550
*CONN
*P u_eop_detector\/_22_ B
*I u_eop_detector\/_47_:A1 B
*I u_eop_detector\/_45_:ZN B
*CAP
1 u_eop_detector\/_22_ 1.256096
2 u_eop_detector\/_22_ u_eop_detector\/se0_count[4] 0.005454
*RES
1 u_eop_detector\/_22_ u_eop_detector\/_22_:2 19.818400
2 u_eop_detector\/_22_ u_eop_detector\/_22_:3 20.230600
3 u_eop_detector\/_22_ u_eop_detector\/_22_:4 20.230600
4 u_eop_detector\/_22_ u_eop_detector\/_22_:5 21.447600
5 u_eop_detector\/_22_ u_eop_detector\/_47_:A1 0.000000
6 u_eop_detector\/_22_ u_eop_detector\/_45_:ZN 0.000000
*END

*D_NET u_eop_detector\/_23_ 2.246187
*CONN
*P u_eop_detector\/_23_ B
*I u_eop_detector\/_47_:A2 B
*I u_eop_detector\/_46_:ZN B
*CAP
1 u_eop_detector\/_23_ 2.244841
2 u_eop_detector\/_23_ u_eop_detector\/se0_count[3] 0.001346
*RES
1 u_eop_detector\/_23_ u_eop_detector\/_23_:2 6.978700
2 u_eop_detector\/_23_ u_eop_detector\/_23_:3 13.141900
3 u_eop_detector\/_23_ u_eop_detector\/_23_:4 17.536000
4 u_eop_detector\/_23_ u_eop_detector\/_23_:5 24.866200
5 u_eop_detector\/_23_ u_eop_detector\/_23_:6 11.904300
6 u_eop_detector\/_23_ u_eop_detector\/_23_:7 12.206200
7 u_eop_detector\/_23_ u_eop_detector\/_47_:A2 0.000000
8 u_eop_detector\/_23_ u_eop_detector\/_46_:ZN 0.000000
*END

*D_NET u_eop_detector\/_24_ 1.599500
*CONN
*P u_eop_detector\/_24_ B
*I u_eop_detector\/_50_:A2 B
*I u_eop_detector\/_48_:Z B
*CAP
1 u_eop_detector\/_24_ 1.599500
*RES
1 u_eop_detector\/_24_ u_eop_detector\/_24_:2 27.847500
2 u_eop_detector\/_24_ u_eop_detector\/_24_:3 15.105700
3 u_eop_detector\/_24_ u_eop_detector\/_24_:4 15.668800
4 u_eop_detector\/_24_ u_eop_detector\/_24_:5 27.287300
5 u_eop_detector\/_24_ u_eop_detector\/_50_:A2 0.000000
6 u_eop_detector\/_24_ u_eop_detector\/_48_:Z 0.000000
*END

*D_NET u_eop_detector\/_25_ 2.285791
*CONN
*P u_eop_detector\/_25_ B
*I u_eop_detector\/_50_:A3 B
*I u_eop_detector\/_49_:ZN B
*CAP
1 u_eop_detector\/_25_ 2.258004
2 u_eop_detector\/_25_ u_eop_detector\/se0_count[2] 0.023159
3 u_eop_detector\/_25_ u_eop_detector\/se0_count[3] 0.004628
*RES
1 u_eop_detector\/_25_ u_eop_detector\/_25_:2 25.450800
2 u_eop_detector\/_25_ u_eop_detector\/_25_:3 18.909100
3 u_eop_detector\/_25_ u_eop_detector\/_25_:4 13.978300
4 u_eop_detector\/_25_ u_eop_detector\/_25_:5 14.186500
5 u_eop_detector\/_25_ u_eop_detector\/_25_:6 8.550400
6 u_eop_detector\/_25_ u_eop_detector\/_25_:7 8.213100
7 u_eop_detector\/_25_ u_eop_detector\/_50_:A3 0.000000
8 u_eop_detector\/_25_ u_eop_detector\/_49_:ZN 0.000000
*END

*D_NET u_eop_detector\/_26_ 1.980678
*CONN
*P u_eop_detector\/_26_ B
*I u_eop_detector\/_53_:A2 B
*I u_eop_detector\/_52_:ZN B
*CAP
1 u_eop_detector\/_26_ 1.962103
2 u_eop_detector\/_26_ u_eop_detector\/se0_count[2] 0.003801
3 u_eop_detector\/_26_ u_eop_detector\/se0_count[3] 0.010973
4 u_eop_detector\/_26_ u_eop_detector\/se0_count[4] 0.003801
*RES
1 u_eop_detector\/_26_ u_eop_detector\/_26_:2 25.775500
2 u_eop_detector\/_26_ u_eop_detector\/_26_:3 13.186000
3 u_eop_detector\/_26_ u_eop_detector\/_26_:4 19.406600
4 u_eop_detector\/_26_ u_eop_detector\/_26_:5 4.278400
5 u_eop_detector\/_26_ u_eop_detector\/_26_:6 4.108200
6 u_eop_detector\/_26_ u_eop_detector\/_26_:7 15.199000
7 u_eop_detector\/_26_ u_eop_detector\/_26_:8 9.470100
8 u_eop_detector\/_26_ u_eop_detector\/_53_:A2 0.000000
9 u_eop_detector\/_26_ u_eop_detector\/_52_:ZN 0.000000
*END

*D_NET u_eop_detector\/se0_count\[0\] 4.546939
*CONN
*P u_eop_detector\/se0_count\[0\] B
*I u_eop_detector\/_56_:Q B
*I u_eop_detector\/_43_:B B
*I u_eop_detector\/_39_:A2 B
*I u_eop_detector\/_30_:I B
*CAP
1 u_eop_detector\/se0_count[0] 4.546939
*RES
1 u_eop_detector\/se0_count[0] u_eop_detector\/se0_count\[0\]:2 42.202000
2 u_eop_detector\/se0_count[0] u_eop_detector\/se0_count\[0\]:3 25.952900
3 u_eop_detector\/se0_count[0] u_eop_detector\/se0_count\[0\]:4 42.083800
4 u_eop_detector\/se0_count[0] u_eop_detector\/se0_count\[0\]:5 32.667300
5 u_eop_detector\/se0_count[0] u_eop_detector\/se0_count\[0\]:6 43.811400
6 u_eop_detector\/se0_count[0] u_eop_detector\/se0_count\[0\]:7 30.950900
7 u_eop_detector\/se0_count[0] u_eop_detector\/se0_count\[0\]:8 45.181300
8 u_eop_detector\/se0_count[0] u_eop_detector\/se0_count\[0\]:9 19.603100
9 u_eop_detector\/se0_count[0] u_eop_detector\/_56_:Q 0.000000
10 u_eop_detector\/se0_count[0] u_eop_detector\/_43_:B 0.000000
11 u_eop_detector\/se0_count[0] u_eop_detector\/_39_:A2 0.000000
12 u_eop_detector\/se0_count[0] u_eop_detector\/_30_:I 0.000000
*END

*D_NET u_eop_detector\/se0_count\[1\] 5.030117
*CONN
*P u_eop_detector\/se0_count\[1\] B
*I u_eop_detector\/_57_:Q B
*I u_eop_detector\/_42_:A1 B
*I u_eop_detector\/_41_:A1 B
*I u_eop_detector\/_34_:I B
*I u_eop_detector\/_31_:A3 B
*CAP
1 u_eop_detector\/se0_count[1] 5.030117
*RES
1 u_eop_detector\/se0_count[1] u_eop_detector\/se0_count\[1\]:2 61.855600
2 u_eop_detector\/se0_count[1] u_eop_detector\/se0_count\[1\]:3 48.308700
3 u_eop_detector\/se0_count[1] u_eop_detector\/se0_count\[1\]:4 12.705100
4 u_eop_detector\/se0_count[1] u_eop_detector\/se0_count\[1\]:5 2.334400
5 u_eop_detector\/se0_count[1] u_eop_detector\/se0_count\[1\]:6 22.379000
6 u_eop_detector\/se0_count[1] u_eop_detector\/se0_count\[1\]:7 31.405400
7 u_eop_detector\/se0_count[1] u_eop_detector\/se0_count\[1\]:8 20.793200
8 u_eop_detector\/se0_count[1] u_eop_detector\/se0_count\[1\]:9 35.938900
9 u_eop_detector\/se0_count[1] u_eop_detector\/se0_count\[1\]:10 63.657300
10 u_eop_detector\/se0_count[1] u_eop_detector\/se0_count\[1\]:11 78.288100
11 u_eop_detector\/se0_count[1] u_eop_detector\/_57_:Q 0.000000
12 u_eop_detector\/se0_count[1] u_eop_detector\/_42_:A1 0.000000
13 u_eop_detector\/se0_count[1] u_eop_detector\/_41_:A1 0.000000
14 u_eop_detector\/se0_count[1] u_eop_detector\/_34_:I 0.000000
15 u_eop_detector\/se0_count[1] u_eop_detector\/_31_:A3 0.000000
*END

*D_NET u_eop_detector\/se0_count\[2\] 8.991423
*CONN
*P u_eop_detector\/se0_count\[2\] B
*I u_eop_detector\/_58_:Q B
*I u_eop_detector\/_52_:A3 B
*I u_eop_detector\/_49_:A1 B
*I u_eop_detector\/_48_:A2 B
*I u_eop_detector\/_46_:A2 B
*I u_eop_detector\/_36_:A1 B
*I u_eop_detector\/_29_:A3 B
*CAP
1 u_eop_detector\/se0_count[2] 8.965310
2 u_eop_detector\/se0_count[2] u_eop_detector\/se0_count[3] 0.017684
3 u_eop_detector\/se0_count[2] u_eop_detector\/se0_count[4] 0.008429
*RES
1 u_eop_detector\/se0_count[2] u_eop_detector\/se0_count\[2\]:2 58.072400
2 u_eop_detector\/se0_count[2] u_eop_detector\/se0_count\[2\]:3 51.460300
3 u_eop_detector\/se0_count[2] u_eop_detector\/se0_count\[2\]:4 45.288500
4 u_eop_detector\/se0_count[2] u_eop_detector\/se0_count\[2\]:5 39.857500
5 u_eop_detector\/se0_count[2] u_eop_detector\/se0_count\[2\]:6 27.091000
6 u_eop_detector\/se0_count[2] u_eop_detector\/se0_count\[2\]:7 35.976100
7 u_eop_detector\/se0_count[2] u_eop_detector\/se0_count\[2\]:8 15.421800
8 u_eop_detector\/se0_count[2] u_eop_detector\/se0_count\[2\]:9 22.606000
9 u_eop_detector\/se0_count[2] u_eop_detector\/se0_count\[2\]:10 47.786200
10 u_eop_detector\/se0_count[2] u_eop_detector\/se0_count\[2\]:11 26.509200
11 u_eop_detector\/se0_count[2] u_eop_detector\/se0_count\[2\]:12 51.227500
12 u_eop_detector\/se0_count[2] u_eop_detector\/se0_count\[2\]:13 57.323500
13 u_eop_detector\/se0_count[2] u_eop_detector\/se0_count\[2\]:14 54.774700
14 u_eop_detector\/se0_count[2] u_eop_detector\/se0_count\[2\]:15 70.972500
15 u_eop_detector\/se0_count[2] u_eop_detector\/se0_count\[2\]:16 70.773800
16 u_eop_detector\/se0_count[2] u_eop_detector\/se0_count\[2\]:17 27.239200
17 u_eop_detector\/se0_count[2] u_eop_detector\/se0_count\[2\]:18 45.362700
18 u_eop_detector\/se0_count[2] u_eop_detector\/se0_count\[2\]:19 35.093200
19 u_eop_detector\/se0_count[2] u_eop_detector\/_58_:Q 0.000000
20 u_eop_detector\/se0_count[2] u_eop_detector\/_52_:A3 0.000000
21 u_eop_detector\/se0_count[2] u_eop_detector\/_49_:A1 0.000000
22 u_eop_detector\/se0_count[2] u_eop_detector\/_48_:A2 0.000000
23 u_eop_detector\/se0_count[2] u_eop_detector\/_46_:A2 0.000000
24 u_eop_detector\/se0_count[2] u_eop_detector\/_36_:A1 0.000000
25 u_eop_detector\/se0_count[2] u_eop_detector\/_29_:A3 0.000000
*END

*D_NET u_eop_detector\/se0_count\[3\] 7.256858
*CONN
*P u_eop_detector\/se0_count\[3\] B
*I u_eop_detector\/_59_:Q B
*I u_eop_detector\/_52_:A1 B
*I u_eop_detector\/_49_:B B
*I u_eop_detector\/_48_:A1 B
*I u_eop_detector\/_46_:A1 B
*I u_eop_detector\/_29_:A1 B
*CAP
1 u_eop_detector\/se0_count[3] 7.247195
2 u_eop_detector\/se0_count[3] u_eop_detector\/se0_count[4] 0.009663
*RES
1 u_eop_detector\/se0_count[3] u_eop_detector\/se0_count\[3\]:2 81.177800
2 u_eop_detector\/se0_count[3] u_eop_detector\/se0_count\[3\]:3 51.167600
3 u_eop_detector\/se0_count[3] u_eop_detector\/se0_count\[3\]:4 38.039200
4 u_eop_detector\/se0_count[3] u_eop_detector\/se0_count\[3\]:5 11.961500
5 u_eop_detector\/se0_count[3] u_eop_detector\/se0_count\[3\]:6 7.282000
6 u_eop_detector\/se0_count[3] u_eop_detector\/se0_count\[3\]:7 12.750100
7 u_eop_detector\/se0_count[3] u_eop_detector\/se0_count\[3\]:8 59.238500
8 u_eop_detector\/se0_count[3] u_eop_detector\/se0_count\[3\]:9 47.661900
9 u_eop_detector\/se0_count[3] u_eop_detector\/se0_count\[3\]:10 70.338200
10 u_eop_detector\/se0_count[3] u_eop_detector\/se0_count\[3\]:11 14.658400
11 u_eop_detector\/se0_count[3] u_eop_detector\/se0_count\[3\]:12 17.737700
12 u_eop_detector\/se0_count[3] u_eop_detector\/se0_count\[3\]:13 69.446000
13 u_eop_detector\/se0_count[3] u_eop_detector\/se0_count\[3\]:14 24.012900
14 u_eop_detector\/se0_count[3] u_eop_detector\/se0_count\[3\]:15 62.697100
15 u_eop_detector\/se0_count[3] u_eop_detector\/_59_:Q 0.000000
16 u_eop_detector\/se0_count[3] u_eop_detector\/_52_:A1 0.000000
17 u_eop_detector\/se0_count[3] u_eop_detector\/_49_:B 0.000000
18 u_eop_detector\/se0_count[3] u_eop_detector\/_48_:A1 0.000000
19 u_eop_detector\/se0_count[3] u_eop_detector\/_46_:A1 0.000000
20 u_eop_detector\/se0_count[3] u_eop_detector\/_29_:A1 0.000000
*END

*D_NET u_eop_detector\/se0_count\[4\] 4.568786
*CONN
*P u_eop_detector\/se0_count\[4\] B
*I u_eop_detector\/_60_:Q B
*I u_eop_detector\/_52_:A2 B
*I u_eop_detector\/_45_:I B
*I u_eop_detector\/_29_:A2 B
*CAP
1 u_eop_detector\/se0_count[4] 4.568786
*RES
1 u_eop_detector\/se0_count[4] u_eop_detector\/se0_count\[4\]:2 34.385600
2 u_eop_detector\/se0_count[4] u_eop_detector\/se0_count\[4\]:3 47.793600
3 u_eop_detector\/se0_count[4] u_eop_detector\/se0_count\[4\]:4 20.073300
4 u_eop_detector\/se0_count[4] u_eop_detector\/se0_count\[4\]:5 37.657700
5 u_eop_detector\/se0_count[4] u_eop_detector\/se0_count\[4\]:6 38.983400
6 u_eop_detector\/se0_count[4] u_eop_detector\/se0_count\[4\]:7 44.822100
7 u_eop_detector\/se0_count[4] u_eop_detector\/se0_count\[4\]:8 33.662800
8 u_eop_detector\/se0_count[4] u_eop_detector\/se0_count\[4\]:9 36.531800
9 u_eop_detector\/se0_count[4] u_eop_detector\/se0_count\[4\]:10 23.192600
10 u_eop_detector\/se0_count[4] u_eop_detector\/se0_count\[4\]:11 59.049600
11 u_eop_detector\/se0_count[4] u_eop_detector\/_60_:Q 0.000000
12 u_eop_detector\/se0_count[4] u_eop_detector\/_52_:A2 0.000000
13 u_eop_detector\/se0_count[4] u_eop_detector\/_45_:I 0.000000
14 u_eop_detector\/se0_count[4] u_eop_detector\/_29_:A2 0.000000
*END

*D_NET u_eop_detector\/se0_count\[5\] 6.441767
*CONN
*P u_eop_detector\/se0_count\[5\] B
*I u_eop_detector\/_61_:Q B
*I u_eop_detector\/_38_:I B
*I u_eop_detector\/_35_:A1 B
*I u_eop_detector\/_31_:A1 B
*CAP
1 u_eop_detector\/se0_count[5] 6.441767
*RES
1 u_eop_detector\/se0_count[5] u_eop_detector\/se0_count\[5\]:2 21.217400
2 u_eop_detector\/se0_count[5] u_eop_detector\/se0_count\[5\]:3 37.263800
3 u_eop_detector\/se0_count[5] u_eop_detector\/se0_count\[5\]:4 29.051300
4 u_eop_detector\/se0_count[5] u_eop_detector\/se0_count\[5\]:5 16.760900
5 u_eop_detector\/se0_count[5] u_eop_detector\/se0_count\[5\]:6 40.950600
6 u_eop_detector\/se0_count[5] u_eop_detector\/se0_count\[5\]:7 45.505500
7 u_eop_detector\/se0_count[5] u_eop_detector\/se0_count\[5\]:8 51.168100
8 u_eop_detector\/se0_count[5] u_eop_detector\/se0_count\[5\]:9 38.865300
9 u_eop_detector\/se0_count[5] u_eop_detector\/se0_count\[5\]:10 21.124200
10 u_eop_detector\/se0_count[5] u_eop_detector\/se0_count\[5\]:11 106.764200
11 u_eop_detector\/se0_count[5] u_eop_detector\/se0_count\[5\]:12 6.438300
12 u_eop_detector\/se0_count[5] u_eop_detector\/se0_count\[5\]:13 88.989400
13 u_eop_detector\/se0_count[5] u_eop_detector\/se0_count\[5\]:14 14.410700
14 u_eop_detector\/se0_count[5] u_eop_detector\/se0_count\[5\]:15 27.891300
15 u_eop_detector\/se0_count[5] u_eop_detector\/_61_:Q 0.000000
16 u_eop_detector\/se0_count[5] u_eop_detector\/_38_:I 0.000000
17 u_eop_detector\/se0_count[5] u_eop_detector\/_35_:A1 0.000000
18 u_eop_detector\/se0_count[5] u_eop_detector\/_31_:A1 0.000000
*END

*D_NET u_line_state\/_0_ 1.593602
*CONN
*P u_line_state\/_0_ B
*I u_line_state\/_6_:D B
*I u_line_state\/_4_:ZN B
*CAP
1 u_line_state\/_0_ 1.589801
2 u_line_state\/_0_ u_line_state\/_2_ 0.003801
*RES
1 u_line_state\/_0_ u_line_state\/_0_:2 8.432700
2 u_line_state\/_0_ u_line_state\/_0_:3 15.411700
3 u_line_state\/_0_ u_line_state\/_0_:4 24.794200
4 u_line_state\/_0_ u_line_state\/_0_:5 16.739300
5 u_line_state\/_0_ u_line_state\/_0_:6 18.582300
6 u_line_state\/_0_ u_line_state\/_6_:D 0.000000
7 u_line_state\/_0_ u_line_state\/_4_:ZN 0.000000
*END

*D_NET u_line_state\/_1_ 1.798865
*CONN
*P u_line_state\/_1_ B
*I u_line_state\/_7_:D B
*I u_line_state\/_5_:Z B
*CAP
1 u_line_state\/_1_ 1.798865
*RES
1 u_line_state\/_1_ u_line_state\/_1_:2 12.388000
2 u_line_state\/_1_ u_line_state\/_1_:3 17.811100
3 u_line_state\/_1_ u_line_state\/_1_:4 8.343700
4 u_line_state\/_1_ u_line_state\/_1_:5 10.481300
5 u_line_state\/_1_ u_line_state\/_1_:6 8.579300
6 u_line_state\/_1_ u_line_state\/_1_:7 7.758300
7 u_line_state\/_1_ u_line_state\/_1_:8 3.799200
8 u_line_state\/_1_ u_line_state\/_1_:9 4.163500
9 u_line_state\/_1_ u_line_state\/_1_:10 7.752000
10 u_line_state\/_1_ u_line_state\/_1_:11 1.454400
11 u_line_state\/_1_ u_line_state\/_7_:D 0.000000
12 u_line_state\/_1_ u_line_state\/_5_:Z 0.000000
*END

*D_NET u_line_state\/_2_ 2.879490
*CONN
*P u_line_state\/_2_ B
*I u_line_state\/_4_:A1 B
*I u_line_state\/_3_:ZN B
*CAP
1 u_line_state\/_2_ 2.879490
*RES
1 u_line_state\/_2_ u_line_state\/_2_:2 20.279600
2 u_line_state\/_2_ u_line_state\/_2_:3 24.586600
3 u_line_state\/_2_ u_line_state\/_2_:4 8.828000
4 u_line_state\/_2_ u_line_state\/_2_:5 9.296100
5 u_line_state\/_2_ u_line_state\/_2_:6 13.315400
6 u_line_state\/_2_ u_line_state\/_2_:7 13.619100
7 u_line_state\/_2_ u_line_state\/_4_:A1 0.000000
8 u_line_state\/_2_ u_line_state\/_3_:ZN 0.000000
*END

*D_NET u_stuffer\/_00_ 3.036930
*CONN
*P u_stuffer\/_00_ B
*I u_stuffer\/_31_:D B
*I u_stuffer\/_23_:ZN B
*CAP
1 u_stuffer\/_00_ 3.012416
2 u_stuffer\/_00_ u_stuffer\/_03_ 0.003801
3 u_stuffer\/_00_ u_stuffer\/_06_ 0.004628
4 u_stuffer\/_00_ u_stuffer\/_10_ 0.007656
5 u_stuffer\/_00_ u_stuffer\/run[0] 0.004628
6 u_stuffer\/_00_ u_stuffer\/run[1] 0.003801
*RES
1 u_stuffer\/_00_ u_stuffer\/_00_:2 21.205400
2 u_stuffer\/_00_ u_stuffer\/_00_:3 24.230600
3 u_stuffer\/_00_ u_stuffer\/_00_:4 9.634400
4 u_stuffer\/_00_ u_stuffer\/_00_:5 13.212000
5 u_stuffer\/_00_ u_stuffer\/_00_:6 13.288200
6 u_stuffer\/_00_ u_stuffer\/_00_:7 9.506000
7 u_stuffer\/_00_ u_stuffer\/_31_:D 0.000000
8 u_stuffer\/_00_ u_stuffer\/_23_:ZN 0.000000
*END

*D_NET u_stuffer\/_01_ 1.990958
*CONN
*P u_stuffer\/_01_ B
*I u_stuffer\/_32_:D B
*I u_stuffer\/_27_:ZN B
*CAP
1 u_stuffer\/_01_ 1.980911
2 u_stuffer\/_01_ u_stuffer\/_09_ 0.005419
3 u_stuffer\/_01_ u_stuffer\/_11_ 0.004628
*RES
1 u_stuffer\/_01_ u_stuffer\/_01_:2 17.671400
2 u_stuffer\/_01_ u_stuffer\/_01_:3 10.337400
3 u_stuffer\/_01_ u_stuffer\/_01_:4 1.488300
4 u_stuffer\/_01_ u_stuffer\/_01_:5 2.985100
5 u_stuffer\/_01_ u_stuffer\/_01_:6 7.633700
6 u_stuffer\/_01_ u_stuffer\/_01_:7 4.396800
7 u_stuffer\/_01_ u_stuffer\/_01_:8 7.900700
8 u_stuffer\/_01_ u_stuffer\/_01_:9 9.115700
9 u_stuffer\/_01_ u_stuffer\/_01_:10 12.750300
10 u_stuffer\/_01_ u_stuffer\/_01_:11 10.327400
11 u_stuffer\/_01_ u_stuffer\/_32_:D 0.000000
12 u_stuffer\/_01_ u_stuffer\/_27_:ZN 0.000000
*END

*D_NET u_stuffer\/_02_ 2.681226
*CONN
*P u_stuffer\/_02_ B
*I u_stuffer\/_33_:D B
*I u_stuffer\/_30_:ZN B
*CAP
1 u_stuffer\/_02_ 2.676598
2 u_stuffer\/_02_ u_stuffer\/_13_ 0.004628
*RES
1 u_stuffer\/_02_ u_stuffer\/_02_:2 18.520100
2 u_stuffer\/_02_ u_stuffer\/_02_:3 20.357600
3 u_stuffer\/_02_ u_stuffer\/_02_:4 8.527900
4 u_stuffer\/_02_ u_stuffer\/_02_:5 2.779000
5 u_stuffer\/_02_ u_stuffer\/_02_:6 4.948000
6 u_stuffer\/_02_ u_stuffer\/_02_:7 8.877100
7 u_stuffer\/_02_ u_stuffer\/_02_:8 6.909500
8 u_stuffer\/_02_ u_stuffer\/_02_:9 6.820200
9 u_stuffer\/_02_ u_stuffer\/_02_:10 5.249000
10 u_stuffer\/_02_ u_stuffer\/_02_:11 5.135800
11 u_stuffer\/_02_ u_stuffer\/_33_:D 0.000000
12 u_stuffer\/_02_ u_stuffer\/_30_:ZN 0.000000
*END

*D_NET u_stuffer\/_03_ 8.787549
*CONN
*P u_stuffer\/_03_ B
*I u_stuffer\/_23_:A1 B
*I u_stuffer\/_20_:A1 B
*I u_stuffer\/_19_:A2 B
*I u_stuffer\/_16_:A2 B
*I u_stuffer\/_14_:ZN B
*CAP
1 u_stuffer\/_03_ 8.771518
2 u_stuffer\/_03_ u_stuffer\/_04_ 0.003801
3 u_stuffer\/_03_ u_stuffer\/_06_ 0.003801
4 u_stuffer\/_03_ u_stuffer\/_08_ 0.004628
5 u_stuffer\/_03_ u_stuffer\/run[1] 0.003801
*RES
1 u_stuffer\/_03_ u_stuffer\/_03_:2 39.690400
2 u_stuffer\/_03_ u_stuffer\/_03_:3 1.009700
3 u_stuffer\/_03_ u_stuffer\/_03_:4 36.474600
4 u_stuffer\/_03_ u_stuffer\/_03_:5 20.436100
5 u_stuffer\/_03_ u_stuffer\/_03_:6 15.090400
6 u_stuffer\/_03_ u_stuffer\/_03_:7 33.703300
7 u_stuffer\/_03_ u_stuffer\/_03_:8 18.969200
8 u_stuffer\/_03_ u_stuffer\/_03_:9 25.948800
9 u_stuffer\/_03_ u_stuffer\/_03_:10 23.337100
10 u_stuffer\/_03_ u_stuffer\/_03_:11 30.464400
11 u_stuffer\/_03_ u_stuffer\/_03_:12 21.559500
12 u_stuffer\/_03_ u_stuffer\/_03_:13 50.215500
13 u_stuffer\/_03_ u_stuffer\/_03_:14 39.542000
14 u_stuffer\/_03_ u_stuffer\/_03_:15 79.528800
15 u_stuffer\/_03_ u_stuffer\/_03_:16 15.669000
16 u_stuffer\/_03_ u_stuffer\/_03_:17 34.228200
17 u_stuffer\/_03_ u_stuffer\/_03_:18 64.992900
18 u_stuffer\/_03_ u_stuffer\/_03_:19 42.557700
19 u_stuffer\/_03_ u_stuffer\/_03_:20 31.713400
20 u_stuffer\/_03_ u_stuffer\/_03_:21 35.358000
21 u_stuffer\/_03_ u_stuffer\/_03_:22 47.024400
22 u_stuffer\/_03_ u_stuffer\/_03_:23 44.383800
23 u_stuffer\/_03_ u_stuffer\/_23_:A1 0.000000
24 u_stuffer\/_03_ u_stuffer\/_20_:A1 0.000000
25 u_stuffer\/_03_ u_stuffer\/_19_:A2 0.000000
26 u_stuffer\/_03_ u_stuffer\/_16_:A2 0.000000
27 u_stuffer\/_03_ u_stuffer\/_14_:ZN 0.000000
*END

*D_NET u_stuffer\/_04_ 8.090854
*CONN
*P u_stuffer\/_04_ B
*I u_stuffer\/_24_:A2 B
*I u_stuffer\/_18_:A3 B
*I u_stuffer\/_16_:A4 B
*I u_stuffer\/_15_:ZN B
*CAP
1 u_stuffer\/_04_ 8.072343
2 u_stuffer\/_04_ u_stuffer\/_05_ 0.004628
3 u_stuffer\/_04_ u_stuffer\/_12_ 0.005454
4 u_stuffer\/_04_ u_stuffer\/run[2] 0.008429
*RES
1 u_stuffer\/_04_ u_stuffer\/_04_:2 22.761200
2 u_stuffer\/_04_ u_stuffer\/_04_:3 18.932200
3 u_stuffer\/_04_ u_stuffer\/_04_:4 15.610900
4 u_stuffer\/_04_ u_stuffer\/_04_:5 10.970700
5 u_stuffer\/_04_ u_stuffer\/_04_:6 10.042700
6 u_stuffer\/_04_ u_stuffer\/_04_:7 37.829000
7 u_stuffer\/_04_ u_stuffer\/_04_:8 27.582900
8 u_stuffer\/_04_ u_stuffer\/_04_:9 22.285900
9 u_stuffer\/_04_ u_stuffer\/_04_:10 32.172700
10 u_stuffer\/_04_ u_stuffer\/_04_:11 43.084100
11 u_stuffer\/_04_ u_stuffer\/_04_:12 47.598000
12 u_stuffer\/_04_ u_stuffer\/_04_:13 12.874900
13 u_stuffer\/_04_ u_stuffer\/_04_:14 25.196000
14 u_stuffer\/_04_ u_stuffer\/_04_:15 16.208400
15 u_stuffer\/_04_ u_stuffer\/_04_:16 29.726300
16 u_stuffer\/_04_ u_stuffer\/_04_:17 29.342100
17 u_stuffer\/_04_ u_stuffer\/_04_:18 34.568400
18 u_stuffer\/_04_ u_stuffer\/_04_:19 37.143900
19 u_stuffer\/_04_ u_stuffer\/_04_:20 32.867300
20 u_stuffer\/_04_ u_stuffer\/_04_:21 22.938700
21 u_stuffer\/_04_ u_stuffer\/_04_:22 18.949900
22 u_stuffer\/_04_ u_stuffer\/_04_:23 29.242300
23 u_stuffer\/_04_ u_stuffer\/_04_:24 18.810800
24 u_stuffer\/_04_ u_stuffer\/_04_:25 25.892400
25 u_stuffer\/_04_ u_stuffer\/_04_:26 18.336900
26 u_stuffer\/_04_ u_stuffer\/_04_:27 20.552700
27 u_stuffer\/_04_ u_stuffer\/_24_:A2 0.000000
28 u_stuffer\/_04_ u_stuffer\/_18_:A3 0.000000
29 u_stuffer\/_04_ u_stuffer\/_16_:A4 0.000000
30 u_stuffer\/_04_ u_stuffer\/_15_:ZN 0.000000
*END

*D_NET u_stuffer\/_05_ 1.550185
*CONN
*P u_stuffer\/_05_ B
*I u_stuffer\/_19_:A3 B
*I u_stuffer\/_18_:ZN B
*CAP
1 u_stuffer\/_05_ 1.541756
2 u_stuffer\/_05_ u_stuffer\/run[2] 0.008429
*RES
1 u_stuffer\/_05_ u_stuffer\/_05_:2 10.886100
2 u_stuffer\/_05_ u_stuffer\/_05_:3 6.875200
3 u_stuffer\/_05_ u_stuffer\/_05_:4 18.857400
4 u_stuffer\/_05_ u_stuffer\/_05_:5 20.953700
5 u_stuffer\/_05_ u_stuffer\/_05_:6 16.711000
6 u_stuffer\/_05_ u_stuffer\/_05_:7 11.461800
7 u_stuffer\/_05_ u_stuffer\/_19_:A3 0.000000
8 u_stuffer\/_05_ u_stuffer\/_18_:ZN 0.000000
*END

*D_NET u_stuffer\/_06_ 2.414591
*CONN
*P u_stuffer\/_06_ B
*I u_stuffer\/_23_:B1 B
*I u_stuffer\/_20_:ZN B
*CAP
1 u_stuffer\/_06_ 2.414591
*RES
1 u_stuffer\/_06_ u_stuffer\/_06_:2 15.912700
2 u_stuffer\/_06_ u_stuffer\/_06_:3 21.407800
3 u_stuffer\/_06_ u_stuffer\/_06_:4 5.051400
4 u_stuffer\/_06_ u_stuffer\/_06_:5 2.375600
5 u_stuffer\/_06_ u_stuffer\/_06_:6 7.389900
6 u_stuffer\/_06_ u_stuffer\/_06_:7 7.762000
7 u_stuffer\/_06_ u_stuffer\/_06_:8 10.010600
8 u_stuffer\/_06_ u_stuffer\/_06_:9 8.685600
9 u_stuffer\/_06_ u_stuffer\/_06_:10 2.830400
10 u_stuffer\/_06_ u_stuffer\/_06_:11 4.665400
11 u_stuffer\/_06_ u_stuffer\/_23_:B1 0.000000
12 u_stuffer\/_06_ u_stuffer\/_20_:ZN 0.000000
*END

*D_NET u_stuffer\/_07_ 1.195936
*CONN
*P u_stuffer\/_07_ B
*I u_stuffer\/_22_:A1 B
*I u_stuffer\/_21_:ZN B
*CAP
1 u_stuffer\/_07_ 1.195936
*RES
1 u_stuffer\/_07_ u_stuffer\/_07_:2 10.563200
2 u_stuffer\/_07_ u_stuffer\/_07_:3 30.490300
3 u_stuffer\/_07_ u_stuffer\/_07_:4 11.206000
4 u_stuffer\/_07_ u_stuffer\/_07_:5 29.738300
5 u_stuffer\/_07_ u_stuffer\/_22_:A1 0.000000
6 u_stuffer\/_07_ u_stuffer\/_21_:ZN 0.000000
*END

*D_NET u_stuffer\/_08_ 1.388836
*CONN
*P u_stuffer\/_08_ B
*I u_stuffer\/_23_:B2 B
*I u_stuffer\/_22_:ZN B
*CAP
1 u_stuffer\/_08_ 1.388836
*RES
1 u_stuffer\/_08_ u_stuffer\/_08_:2 19.407500
2 u_stuffer\/_08_ u_stuffer\/_08_:3 11.935400
3 u_stuffer\/_08_ u_stuffer\/_08_:4 6.310000
4 u_stuffer\/_08_ u_stuffer\/_08_:5 17.134800
5 u_stuffer\/_08_ u_stuffer\/_08_:6 16.903700
6 u_stuffer\/_08_ u_stuffer\/_08_:7 10.975100
7 u_stuffer\/_08_ u_stuffer\/_23_:B2 0.000000
8 u_stuffer\/_08_ u_stuffer\/_22_:ZN 0.000000
*END

*D_NET u_stuffer\/_09_ 4.851780
*CONN
*P u_stuffer\/_09_ B
*I u_stuffer\/_30_:A2 B
*I u_stuffer\/_27_:A2 B
*I u_stuffer\/_24_:ZN B
*CAP
1 u_stuffer\/_09_ 4.847152
2 u_stuffer\/_09_ u_stuffer\/_11_ 0.004628
*RES
1 u_stuffer\/_09_ u_stuffer\/_09_:2 43.046100
2 u_stuffer\/_09_ u_stuffer\/_09_:3 33.744300
3 u_stuffer\/_09_ u_stuffer\/_09_:4 20.264300
4 u_stuffer\/_09_ u_stuffer\/_09_:5 27.057900
5 u_stuffer\/_09_ u_stuffer\/_09_:6 27.152800
6 u_stuffer\/_09_ u_stuffer\/_09_:7 32.542600
7 u_stuffer\/_09_ u_stuffer\/_09_:8 42.767600
8 u_stuffer\/_09_ u_stuffer\/_09_:9 14.228100
9 u_stuffer\/_09_ u_stuffer\/_09_:10 33.469000
10 u_stuffer\/_09_ u_stuffer\/_09_:11 30.763600
11 u_stuffer\/_09_ u_stuffer\/_09_:12 25.903000
12 u_stuffer\/_09_ u_stuffer\/_09_:13 18.127100
13 u_stuffer\/_09_ u_stuffer\/_09_:14 16.254300
14 u_stuffer\/_09_ u_stuffer\/_09_:15 21.564600
15 u_stuffer\/_09_ u_stuffer\/_09_:16 16.175600
16 u_stuffer\/_09_ u_stuffer\/_09_:17 35.636900
17 u_stuffer\/_09_ u_stuffer\/_30_:A2 0.000000
18 u_stuffer\/_09_ u_stuffer\/_27_:A2 0.000000
19 u_stuffer\/_09_ u_stuffer\/_24_:ZN 0.000000
*END

*D_NET u_stuffer\/_10_ 3.380611
*CONN
*P u_stuffer\/_10_ B
*I u_stuffer\/_26_:A2 B
*I u_stuffer\/_25_:ZN B
*CAP
1 u_stuffer\/_10_ 3.357225
2 u_stuffer\/_10_ u_stuffer\/_12_ 0.006053
3 u_stuffer\/_10_ u_stuffer\/run[0] 0.013532
4 u_stuffer\/_10_ u_stuffer\/run[1] 0.003801
*RES
1 u_stuffer\/_10_ u_stuffer\/_10_:2 22.123200
2 u_stuffer\/_10_ u_stuffer\/_10_:3 28.568800
3 u_stuffer\/_10_ u_stuffer\/_10_:4 16.782000
4 u_stuffer\/_10_ u_stuffer\/_10_:5 26.065400
5 u_stuffer\/_10_ u_stuffer\/_10_:6 18.332200
6 u_stuffer\/_10_ u_stuffer\/_10_:7 8.135400
7 u_stuffer\/_10_ u_stuffer\/_10_:8 9.614200
8 u_stuffer\/_10_ u_stuffer\/_10_:9 17.659100
9 u_stuffer\/_10_ u_stuffer\/_10_:10 17.668200
10 u_stuffer\/_10_ u_stuffer\/_10_:11 19.584600
11 u_stuffer\/_10_ u_stuffer\/_26_:A2 0.000000
12 u_stuffer\/_10_ u_stuffer\/_25_:ZN 0.000000
*END

*D_NET u_stuffer\/_11_ 3.542146
*CONN
*P u_stuffer\/_11_ B
*I u_stuffer\/_27_:B B
*I u_stuffer\/_26_:Z B
*CAP
1 u_stuffer\/_11_ 3.528770
2 u_stuffer\/_11_ u_stuffer\/_12_ 0.004628
3 u_stuffer\/_11_ u_stuffer\/run[0] 0.004120
4 u_stuffer\/_11_ u_stuffer\/run[1] 0.004628
*RES
1 u_stuffer\/_11_ u_stuffer\/_11_:2 22.966400
2 u_stuffer\/_11_ u_stuffer\/_11_:3 19.160100
3 u_stuffer\/_11_ u_stuffer\/_11_:4 21.519700
4 u_stuffer\/_11_ u_stuffer\/_11_:5 24.980700
5 u_stuffer\/_11_ u_stuffer\/_11_:6 22.636500
6 u_stuffer\/_11_ u_stuffer\/_11_:7 20.475500
7 u_stuffer\/_11_ u_stuffer\/_11_:8 23.867400
8 u_stuffer\/_11_ u_stuffer\/_11_:9 21.894800
9 u_stuffer\/_11_ u_stuffer\/_27_:B 0.000000
10 u_stuffer\/_11_ u_stuffer\/_26_:Z 0.000000
*END

*D_NET u_stuffer\/_12_ 5.704875
*CONN
*P u_stuffer\/_12_ B
*I u_stuffer\/_29_:A2 B
*I u_stuffer\/_28_:ZN B
*CAP
1 u_stuffer\/_12_ 5.695124
2 u_stuffer\/_12_ u_stuffer\/run[1] 0.003801
3 u_stuffer\/_12_ u_stuffer\/run[2] 0.005950
*RES
1 u_stuffer\/_12_ u_stuffer\/_12_:2 24.613200
2 u_stuffer\/_12_ u_stuffer\/_12_:3 21.815600
3 u_stuffer\/_12_ u_stuffer\/_12_:4 27.661400
4 u_stuffer\/_12_ u_stuffer\/_12_:5 25.161800
5 u_stuffer\/_12_ u_stuffer\/_12_:6 14.104500
6 u_stuffer\/_12_ u_stuffer\/_12_:7 14.893400
7 u_stuffer\/_12_ u_stuffer\/_12_:8 12.712900
8 u_stuffer\/_12_ u_stuffer\/_12_:9 11.642400
9 u_stuffer\/_12_ u_stuffer\/_12_:10 12.131600
10 u_stuffer\/_12_ u_stuffer\/_12_:11 13.374200
11 u_stuffer\/_12_ u_stuffer\/_12_:12 10.913400
12 u_stuffer\/_12_ u_stuffer\/_12_:13 10.007900
13 u_stuffer\/_12_ u_stuffer\/_29_:A2 0.000000
14 u_stuffer\/_12_ u_stuffer\/_28_:ZN 0.000000
*END

*D_NET u_stuffer\/_13_ 2.717877
*CONN
*P u_stuffer\/_13_ B
*I u_stuffer\/_30_:B B
*I u_stuffer\/_29_:Z B
*CAP
1 u_stuffer\/_13_ 2.713249
2 u_stuffer\/_13_ u_stuffer\/run[2] 0.004628
*RES
1 u_stuffer\/_13_ u_stuffer\/_13_:2 25.544600
2 u_stuffer\/_13_ u_stuffer\/_13_:3 15.724300
3 u_stuffer\/_13_ u_stuffer\/_13_:4 27.163400
4 u_stuffer\/_13_ u_stuffer\/_13_:5 18.278100
5 u_stuffer\/_13_ u_stuffer\/_13_:6 15.986000
6 u_stuffer\/_13_ u_stuffer\/_13_:7 26.795000
7 u_stuffer\/_13_ u_stuffer\/_13_:8 18.483300
8 u_stuffer\/_13_ u_stuffer\/_13_:9 25.289900
9 u_stuffer\/_13_ u_stuffer\/_30_:B 0.000000
10 u_stuffer\/_13_ u_stuffer\/_29_:Z 0.000000
*END

*D_NET u_stuffer\/run\[0\] 7.082010
*CONN
*P u_stuffer\/run\[0\] B
*I u_stuffer\/_31_:Q B
*I u_stuffer\/_28_:A2 B
*I u_stuffer\/_25_:A1 B
*I u_stuffer\/_14_:I B
*CAP
1 u_stuffer\/run[0] 7.082010
*RES
1 u_stuffer\/run[0] u_stuffer\/run\[0\]:2 54.531300
2 u_stuffer\/run[0] u_stuffer\/run\[0\]:3 23.255700
3 u_stuffer\/run[0] u_stuffer\/run\[0\]:4 19.963300
4 u_stuffer\/run[0] u_stuffer\/run\[0\]:5 18.697500
5 u_stuffer\/run[0] u_stuffer\/run\[0\]:6 41.991600
6 u_stuffer\/run[0] u_stuffer\/run\[0\]:7 48.630300
7 u_stuffer\/run[0] u_stuffer\/run\[0\]:8 60.195100
8 u_stuffer\/run[0] u_stuffer\/run\[0\]:9 65.213200
9 u_stuffer\/run[0] u_stuffer\/run\[0\]:10 13.905000
10 u_stuffer\/run[0] u_stuffer\/run\[0\]:11 31.526200
11 u_stuffer\/run[0] u_stuffer\/run\[0\]:12 33.520300
12 u_stuffer\/run[0] u_stuffer\/run\[0\]:13 44.500100
13 u_stuffer\/run[0] u_stuffer\/run\[0\]:14 42.993800
14 u_stuffer\/run[0] u_stuffer\/run\[0\]:15 47.234400
15 u_stuffer\/run[0] u_stuffer\/run\[0\]:16 50.226500
16 u_stuffer\/run[0] u_stuffer\/run\[0\]:17 30.179600
17 u_stuffer\/run[0] u_stuffer\/_31_:Q 0.000000
18 u_stuffer\/run[0] u_stuffer\/_28_:A2 0.000000
19 u_stuffer\/run[0] u_stuffer\/_25_:A1 0.000000
20 u_stuffer\/run[0] u_stuffer\/_14_:I 0.000000
*END

*D_NET u_stuffer\/run\[1\] 8.123044
*CONN
*P u_stuffer\/run\[1\] B
*I u_stuffer\/_32_:Q B
*I u_stuffer\/_28_:A1 B
*I u_stuffer\/_26_:A1 B
*I u_stuffer\/_19_:A1 B
*I u_stuffer\/_16_:A1 B
*CAP
1 u_stuffer\/run[1] 8.123044
*RES
1 u_stuffer\/run[1] u_stuffer\/run\[1\]:2 68.679500
2 u_stuffer\/run[1] u_stuffer\/run\[1\]:3 9.996100
3 u_stuffer\/run[1] u_stuffer\/run\[1\]:4 5.766600
4 u_stuffer\/run[1] u_stuffer\/run\[1\]:5 17.760600
5 u_stuffer\/run[1] u_stuffer\/run\[1\]:6 26.862900
6 u_stuffer\/run[1] u_stuffer\/run\[1\]:7 40.300300
7 u_stuffer\/run[1] u_stuffer\/run\[1\]:8 39.229800
8 u_stuffer\/run[1] u_stuffer\/run\[1\]:9 38.486600
9 u_stuffer\/run[1] u_stuffer\/run\[1\]:10 39.144700
10 u_stuffer\/run[1] u_stuffer\/run\[1\]:11 26.601000
11 u_stuffer\/run[1] u_stuffer\/run\[1\]:12 80.755600
12 u_stuffer\/run[1] u_stuffer\/run\[1\]:13 80.811000
13 u_stuffer\/run[1] u_stuffer\/run\[1\]:14 25.655400
14 u_stuffer\/run[1] u_stuffer\/run\[1\]:15 17.070900
15 u_stuffer\/run[1] u_stuffer\/run\[1\]:16 28.432700
16 u_stuffer\/run[1] u_stuffer\/run\[1\]:17 68.751100
17 u_stuffer\/run[1] u_stuffer\/run\[1\]:18 60.171800
18 u_stuffer\/run[1] u_stuffer\/run\[1\]:19 48.411700
19 u_stuffer\/run[1] u_stuffer\/run\[1\]:20 48.001100
20 u_stuffer\/run[1] u_stuffer\/run\[1\]:21 60.814800
21 u_stuffer\/run[1] u_stuffer\/_32_:Q 0.000000
22 u_stuffer\/run[1] u_stuffer\/_28_:A1 0.000000
23 u_stuffer\/run[1] u_stuffer\/_26_:A1 0.000000
24 u_stuffer\/run[1] u_stuffer\/_19_:A1 0.000000
25 u_stuffer\/run[1] u_stuffer\/_16_:A1 0.000000
*END

*D_NET u_stuffer\/run\[2\] 6.703789
*CONN
*P u_stuffer\/run\[2\] B
*I u_stuffer\/_33_:Q B
*I u_stuffer\/_29_:A1 B
*I u_stuffer\/_18_:A1 B
*I u_stuffer\/_16_:A3 B
*CAP
1 u_stuffer\/run[2] 6.703789
*RES
1 u_stuffer\/run[2] u_stuffer\/run\[2\]:2 64.262300
2 u_stuffer\/run[2] u_stuffer\/run\[2\]:3 55.109400
3 u_stuffer\/run[2] u_stuffer\/run\[2\]:4 63.898400
4 u_stuffer\/run[2] u_stuffer\/run\[2\]:5 45.884800
5 u_stuffer\/run[2] u_stuffer\/run\[2\]:6 11.249700
6 u_stuffer\/run[2] u_stuffer\/run\[2\]:7 25.941700
7 u_stuffer\/run[2] u_stuffer\/run\[2\]:8 55.042200
8 u_stuffer\/run[2] u_stuffer\/run\[2\]:9 32.980200
9 u_stuffer\/run[2] u_stuffer\/run\[2\]:10 25.749400
10 u_stuffer\/run[2] u_stuffer\/run\[2\]:11 56.713300
11 u_stuffer\/run[2] u_stuffer\/run\[2\]:12 41.080300
12 u_stuffer\/run[2] u_stuffer\/run\[2\]:13 33.442800
13 u_stuffer\/run[2] u_stuffer\/run\[2\]:14 46.774500
14 u_stuffer\/run[2] u_stuffer\/run\[2\]:15 39.806500
15 u_stuffer\/run[2] u_stuffer\/run\[2\]:16 55.960000
16 u_stuffer\/run[2] u_stuffer\/run\[2\]:17 11.596500
17 u_stuffer\/run[2] u_stuffer\/_33_:Q 0.000000
18 u_stuffer\/run[2] u_stuffer\/_29_:A1 0.000000
19 u_stuffer\/run[2] u_stuffer\/_18_:A1 0.000000
20 u_stuffer\/run[2] u_stuffer\/_16_:A3 0.000000
*END

*D_NET u_sync_detector\/_00_ 2.093674
*CONN
*P u_sync_detector\/_00_ B
*I u_sync_detector\/_37_:D B
*I u_sync_detector\/_24_:ZN B
*CAP
1 u_sync_detector\/_00_ 2.080617
2 u_sync_detector\/_00_ u_sync_detector\/_09_ 0.013057
*RES
1 u_sync_detector\/_00_ u_sync_detector\/_00_:2 8.516900
2 u_sync_detector\/_00_ u_sync_detector\/_00_:3 15.838000
3 u_sync_detector\/_00_ u_sync_detector\/_00_:4 9.838800
4 u_sync_detector\/_00_ u_sync_detector\/_00_:5 11.393300
5 u_sync_detector\/_00_ u_sync_detector\/_00_:6 11.936600
6 u_sync_detector\/_00_ u_sync_detector\/_00_:7 11.656900
7 u_sync_detector\/_00_ u_sync_detector\/_00_:8 1.347000
8 u_sync_detector\/_00_ u_sync_detector\/_00_:9 7.147000
9 u_sync_detector\/_00_ u_sync_detector\/_00_:10 2.900900
10 u_sync_detector\/_00_ u_sync_detector\/_00_:11 5.592600
11 u_sync_detector\/_00_ u_sync_detector\/_37_:D 0.000000
12 u_sync_detector\/_00_ u_sync_detector\/_24_:ZN 0.000000
*END

*D_NET u_sync_detector\/_01_ 2.762614
*CONN
*P u_sync_detector\/_01_ B
*I u_sync_detector\/_36_:D B
*I u_sync_detector\/_26_:ZN B
*CAP
1 u_sync_detector\/_01_ 2.753370
2 u_sync_detector\/_01_ u_sync_detector\/_09_ 0.000815
3 u_sync_detector\/_01_ u_sync_detector\/_12_ 0.003801
4 u_sync_detector\/_01_ u_sync_detector\/match[0] 0.004628
*RES
1 u_sync_detector\/_01_ u_sync_detector\/_01_:2 18.348500
2 u_sync_detector\/_01_ u_sync_detector\/_01_:3 21.890500
3 u_sync_detector\/_01_ u_sync_detector\/_01_:4 10.015600
4 u_sync_detector\/_01_ u_sync_detector\/_01_:5 6.890100
5 u_sync_detector\/_01_ u_sync_detector\/_01_:6 3.462700
6 u_sync_detector\/_01_ u_sync_detector\/_01_:7 1.192500
7 u_sync_detector\/_01_ u_sync_detector\/_01_:8 6.928400
8 u_sync_detector\/_01_ u_sync_detector\/_01_:9 6.104000
9 u_sync_detector\/_01_ u_sync_detector\/_01_:10 8.304300
10 u_sync_detector\/_01_ u_sync_detector\/_01_:11 6.118400
11 u_sync_detector\/_01_ u_sync_detector\/_36_:D 0.000000
12 u_sync_detector\/_01_ u_sync_detector\/_26_:ZN 0.000000
*END

*D_NET u_sync_detector\/_02_ 2.594896
*CONN
*P u_sync_detector\/_02_ B
*I u_sync_detector\/_35_:D B
*I u_sync_detector\/_29_:ZN B
*CAP
1 u_sync_detector\/_02_ 2.590268
2 u_sync_detector\/_02_ u_sync_detector\/_14_ 0.004628
*RES
1 u_sync_detector\/_02_ u_sync_detector\/_02_:2 23.499600
2 u_sync_detector\/_02_ u_sync_detector\/_02_:3 20.651700
3 u_sync_detector\/_02_ u_sync_detector\/_02_:4 15.840800
4 u_sync_detector\/_02_ u_sync_detector\/_02_:5 11.709500
5 u_sync_detector\/_02_ u_sync_detector\/_02_:6 7.547500
6 u_sync_detector\/_02_ u_sync_detector\/_02_:7 9.528000
7 u_sync_detector\/_02_ u_sync_detector\/_35_:D 0.000000
8 u_sync_detector\/_02_ u_sync_detector\/_29_:ZN 0.000000
*END

*D_NET u_sync_detector\/_03_ 2.474648
*CONN
*P u_sync_detector\/_03_ B
*I u_sync_detector\/_34_:D B
*I u_sync_detector\/_31_:ZN B
*CAP
1 u_sync_detector\/_03_ 2.447436
2 u_sync_detector\/_03_ u_sync_detector\/_13_ 0.004628
3 u_sync_detector\/_03_ u_sync_detector\/_15_ 0.009527
4 u_sync_detector\/_03_ u_sync_detector\/match[0] 0.013057
*RES
1 u_sync_detector\/_03_ u_sync_detector\/_03_:2 23.207300
2 u_sync_detector\/_03_ u_sync_detector\/_03_:3 18.814300
3 u_sync_detector\/_03_ u_sync_detector\/_03_:4 9.938200
4 u_sync_detector\/_03_ u_sync_detector\/_03_:5 7.420600
5 u_sync_detector\/_03_ u_sync_detector\/_03_:6 5.410000
6 u_sync_detector\/_03_ u_sync_detector\/_03_:7 11.941700
7 u_sync_detector\/_03_ u_sync_detector\/_03_:8 11.518000
8 u_sync_detector\/_03_ u_sync_detector\/_34_:D 0.000000
9 u_sync_detector\/_03_ u_sync_detector\/_31_:ZN 0.000000
*END

*D_NET u_sync_detector\/_04_ 1.210103
*CONN
*P u_sync_detector\/_04_ B
*I u_sync_detector\/_33_:D B
*I u_sync_detector\/_32_:Z B
*CAP
1 u_sync_detector\/_04_ 1.210103
*RES
1 u_sync_detector\/_04_ u_sync_detector\/_04_:2 14.429700
2 u_sync_detector\/_04_ u_sync_detector\/_04_:3 24.297500
3 u_sync_detector\/_04_ u_sync_detector\/_04_:4 17.550000
4 u_sync_detector\/_04_ u_sync_detector\/_04_:5 16.295200
5 u_sync_detector\/_04_ u_sync_detector\/_04_:6 7.604700
6 u_sync_detector\/_04_ u_sync_detector\/_04_:7 1.778800
7 u_sync_detector\/_04_ u_sync_detector\/_33_:D 0.000000
8 u_sync_detector\/_04_ u_sync_detector\/_32_:Z 0.000000
*END

*D_NET u_sync_detector\/_05_ 4.001107
*CONN
*P u_sync_detector\/_05_ B
*I u_sync_detector\/_19_:A2 B
*I u_sync_detector\/_16_:ZN B
*CAP
1 u_sync_detector\/_05_ 3.997306
2 u_sync_detector\/_05_ u_sync_detector\/match[3] 0.003801
*RES
1 u_sync_detector\/_05_ u_sync_detector\/_05_:2 34.084800
2 u_sync_detector\/_05_ u_sync_detector\/_05_:3 56.177100
3 u_sync_detector\/_05_ u_sync_detector\/_05_:4 28.201500
4 u_sync_detector\/_05_ u_sync_detector\/_05_:5 22.665800
5 u_sync_detector\/_05_ u_sync_detector\/_05_:6 27.287100
6 u_sync_detector\/_05_ u_sync_detector\/_05_:7 8.551000
7 u_sync_detector\/_05_ u_sync_detector\/_05_:8 52.108100
8 u_sync_detector\/_05_ u_sync_detector\/_05_:9 18.845300
9 u_sync_detector\/_05_ u_sync_detector\/_05_:10 55.254600
10 u_sync_detector\/_05_ u_sync_detector\/_05_:11 66.534500
11 u_sync_detector\/_05_ u_sync_detector\/_19_:A2 0.000000
12 u_sync_detector\/_05_ u_sync_detector\/_16_:ZN 0.000000
*END

*D_NET u_sync_detector\/_06_ 6.917634
*CONN
*P u_sync_detector\/_06_ B
*I u_sync_detector\/_31_:A1 B
*I u_sync_detector\/_19_:A3 B
*I u_sync_detector\/_17_:ZN B
*CAP
1 u_sync_detector\/_06_ 6.887212
2 u_sync_detector\/_06_ u_sync_detector\/_07_ 0.007603
3 u_sync_detector\/_06_ u_sync_detector\/_09_ 0.004275
4 u_sync_detector\/_06_ u_sync_detector\/_14_ 0.009072
5 u_sync_detector\/_06_ u_sync_detector\/match[0] 0.005671
6 u_sync_detector\/_06_ u_sync_detector\/match[1] 0.003801
*RES
1 u_sync_detector\/_06_ u_sync_detector\/_06_:2 16.542000
2 u_sync_detector\/_06_ u_sync_detector\/_06_:3 29.017800
3 u_sync_detector\/_06_ u_sync_detector\/_06_:4 36.639800
4 u_sync_detector\/_06_ u_sync_detector\/_06_:5 26.676200
5 u_sync_detector\/_06_ u_sync_detector\/_06_:6 13.806500
6 u_sync_detector\/_06_ u_sync_detector\/_06_:7 23.039200
7 u_sync_detector\/_06_ u_sync_detector\/_06_:8 20.000600
8 u_sync_detector\/_06_ u_sync_detector\/_06_:9 32.107300
9 u_sync_detector\/_06_ u_sync_detector\/_06_:10 14.263300
10 u_sync_detector\/_06_ u_sync_detector\/_06_:11 22.434900
11 u_sync_detector\/_06_ u_sync_detector\/_06_:12 8.115800
12 u_sync_detector\/_06_ u_sync_detector\/_06_:13 10.171000
13 u_sync_detector\/_06_ u_sync_detector\/_06_:14 10.875800
14 u_sync_detector\/_06_ u_sync_detector\/_06_:15 16.156500
15 u_sync_detector\/_06_ u_sync_detector\/_06_:16 7.385000
16 u_sync_detector\/_06_ u_sync_detector\/_06_:17 7.040000
17 u_sync_detector\/_06_ u_sync_detector\/_06_:18 19.149700
18 u_sync_detector\/_06_ u_sync_detector\/_06_:19 21.942400
19 u_sync_detector\/_06_ u_sync_detector\/_06_:20 13.538900
20 u_sync_detector\/_06_ u_sync_detector\/_06_:21 27.921400
21 u_sync_detector\/_06_ u_sync_detector\/_06_:22 25.056200
22 u_sync_detector\/_06_ u_sync_detector\/_06_:23 8.808300
23 u_sync_detector\/_06_ u_sync_detector\/_06_:24 15.768200
24 u_sync_detector\/_06_ u_sync_detector\/_06_:25 16.182200
25 u_sync_detector\/_06_ u_sync_detector\/_06_:26 17.332000
26 u_sync_detector\/_06_ u_sync_detector\/_06_:27 15.640000
27 u_sync_detector\/_06_ u_sync_detector\/_31_:A1 0.000000
28 u_sync_detector\/_06_ u_sync_detector\/_19_:A3 0.000000
29 u_sync_detector\/_06_ u_sync_detector\/_17_:ZN 0.000000
*END

*D_NET u_sync_detector\/_07_ 8.208363
*CONN
*P u_sync_detector\/_07_ B
*I u_sync_detector\/_21_:A3 B
*I u_sync_detector\/_19_:A4 B
*I u_sync_detector\/_18_:ZN B
*CAP
1 u_sync_detector\/_07_ 8.208363
*RES
1 u_sync_detector\/_07_ u_sync_detector\/_07_:2 31.715400
2 u_sync_detector\/_07_ u_sync_detector\/_07_:3 37.753500
3 u_sync_detector\/_07_ u_sync_detector\/_07_:4 31.928800
4 u_sync_detector\/_07_ u_sync_detector\/_07_:5 35.261600
5 u_sync_detector\/_07_ u_sync_detector\/_07_:6 18.379900
6 u_sync_detector\/_07_ u_sync_detector\/_07_:7 27.676900
7 u_sync_detector\/_07_ u_sync_detector\/_07_:8 10.774600
8 u_sync_detector\/_07_ u_sync_detector\/_07_:9 32.287200
9 u_sync_detector\/_07_ u_sync_detector\/_07_:10 38.666500
10 u_sync_detector\/_07_ u_sync_detector\/_07_:11 18.644200
11 u_sync_detector\/_07_ u_sync_detector\/_07_:12 37.322600
12 u_sync_detector\/_07_ u_sync_detector\/_07_:13 33.831800
13 u_sync_detector\/_07_ u_sync_detector\/_07_:14 14.772100
14 u_sync_detector\/_07_ u_sync_detector\/_07_:15 24.120100
15 u_sync_detector\/_07_ u_sync_detector\/_07_:16 18.684800
16 u_sync_detector\/_07_ u_sync_detector\/_07_:17 15.668000
17 u_sync_detector\/_07_ u_sync_detector\/_07_:18 27.446000
18 u_sync_detector\/_07_ u_sync_detector\/_07_:19 27.241700
19 u_sync_detector\/_07_ u_sync_detector\/_07_:20 26.417700
20 u_sync_detector\/_07_ u_sync_detector\/_07_:21 19.573800
21 u_sync_detector\/_07_ u_sync_detector\/_07_:22 15.431200
22 u_sync_detector\/_07_ u_sync_detector\/_07_:23 22.788000
23 u_sync_detector\/_07_ u_sync_detector\/_07_:24 17.012000
24 u_sync_detector\/_07_ u_sync_detector\/_07_:25 15.141700
25 u_sync_detector\/_07_ u_sync_detector\/_07_:26 31.997000
26 u_sync_detector\/_07_ u_sync_detector\/_07_:27 34.927300
27 u_sync_detector\/_07_ u_sync_detector\/_07_:28 16.213000
28 u_sync_detector\/_07_ u_sync_detector\/_07_:29 30.313900
29 u_sync_detector\/_07_ u_sync_detector\/_21_:A3 0.000000
30 u_sync_detector\/_07_ u_sync_detector\/_19_:A4 0.000000
31 u_sync_detector\/_07_ u_sync_detector\/_18_:ZN 0.000000
*END

*D_NET u_sync_detector\/_08_ 2.142035
*CONN
*P u_sync_detector\/_08_ B
*I u_sync_detector\/_24_:A1 B
*I u_sync_detector\/_20_:ZN B
*CAP
1 u_sync_detector\/_08_ 2.127409
2 u_sync_detector\/_08_ u_sync_detector\/_09_ 0.003801
3 u_sync_detector\/_08_ u_sync_detector\/_11_ 0.005371
4 u_sync_detector\/_08_ u_sync_detector\/match[3] 0.005454
*RES
1 u_sync_detector\/_08_ u_sync_detector\/_08_:2 26.337400
2 u_sync_detector\/_08_ u_sync_detector\/_08_:3 37.666500
3 u_sync_detector\/_08_ u_sync_detector\/_08_:4 18.260700
4 u_sync_detector\/_08_ u_sync_detector\/_08_:5 38.202200
5 u_sync_detector\/_08_ u_sync_detector\/_08_:6 27.171300
6 u_sync_detector\/_08_ u_sync_detector\/_08_:7 19.444200
7 u_sync_detector\/_08_ u_sync_detector\/_24_:A1 0.000000
8 u_sync_detector\/_08_ u_sync_detector\/_20_:ZN 0.000000
*END

*D_NET u_sync_detector\/_09_ 9.933389
*CONN
*P u_sync_detector\/_09_ B
*I u_sync_detector\/_31_:C B
*I u_sync_detector\/_29_:A1 B
*I u_sync_detector\/_26_:A1 B
*I u_sync_detector\/_24_:A2 B
*I u_sync_detector\/_21_:ZN B
*CAP
1 u_sync_detector\/_09_ 9.860732
2 u_sync_detector\/_09_ u_sync_detector\/_10_ 0.010082
3 u_sync_detector\/_09_ u_sync_detector\/_11_ 0.003801
4 u_sync_detector\/_09_ u_sync_detector\/_12_ 0.008429
5 u_sync_detector\/_09_ u_sync_detector\/_15_ 0.000103
6 u_sync_detector\/_09_ u_sync_detector\/match[0] 0.013883
7 u_sync_detector\/_09_ u_sync_detector\/match[1] 0.008429
8 u_sync_detector\/_09_ u_sync_detector\/match[2] 0.018511
9 u_sync_detector\/_09_ u_sync_detector\/match[3] 0.009419
*RES
1 u_sync_detector\/_09_ u_sync_detector\/_09_:2 41.419900
2 u_sync_detector\/_09_ u_sync_detector\/_09_:3 40.168100
3 u_sync_detector\/_09_ u_sync_detector\/_09_:4 22.530300
4 u_sync_detector\/_09_ u_sync_detector\/_09_:5 32.957300
5 u_sync_detector\/_09_ u_sync_detector\/_09_:6 9.617200
6 u_sync_detector\/_09_ u_sync_detector\/_09_:7 9.935900
7 u_sync_detector\/_09_ u_sync_detector\/_09_:8 24.922400
8 u_sync_detector\/_09_ u_sync_detector\/_09_:9 31.764400
9 u_sync_detector\/_09_ u_sync_detector\/_09_:10 5.210500
10 u_sync_detector\/_09_ u_sync_detector\/_09_:11 44.592000
11 u_sync_detector\/_09_ u_sync_detector\/_09_:12 45.722900
12 u_sync_detector\/_09_ u_sync_detector\/_09_:13 4.621700
13 u_sync_detector\/_09_ u_sync_detector\/_09_:14 23.077500
14 u_sync_detector\/_09_ u_sync_detector\/_09_:15 21.225500
15 u_sync_detector\/_09_ u_sync_detector\/_09_:16 19.403000
16 u_sync_detector\/_09_ u_sync_detector\/_09_:17 11.604300
17 u_sync_detector\/_09_ u_sync_detector\/_09_:18 9.371200
18 u_sync_detector\/_09_ u_sync_detector\/_09_:19 14.516300
19 u_sync_detector\/_09_ u_sync_detector\/_09_:20 17.619300
20 u_sync_detector\/_09_ u_sync_detector\/_09_:21 10.319900
21 u_sync_detector\/_09_ u_sync_detector\/_09_:22 8.657600
22 u_sync_detector\/_09_ u_sync_detector\/_09_:23 12.933200
23 u_sync_detector\/_09_ u_sync_detector\/_09_:24 8.378700
24 u_sync_detector\/_09_ u_sync_detector\/_09_:25 16.039400
25 u_sync_detector\/_09_ u_sync_detector\/_09_:26 20.728600
26 u_sync_detector\/_09_ u_sync_detector\/_09_:27 23.884500
27 u_sync_detector\/_09_ u_sync_detector\/_09_:28 25.551500
28 u_sync_detector\/_09_ u_sync_detector\/_09_:29 22.272600
29 u_sync_detector\/_09_ u_sync_detector\/_31_:C 0.000000
30 u_sync_detector\/_09_ u_sync_detector\/_29_:A1 0.000000
31 u_sync_detector\/_09_ u_sync_detector\/_26_:A1 0.000000
32 u_sync_detector\/_09_ u_sync_detector\/_24_:A2 0.000000
33 u_sync_detector\/_09_ u_sync_detector\/_21_:ZN 0.000000
*END

*D_NET u_sync_detector\/_10_ 3.717945
*CONN
*P u_sync_detector\/_10_ B
*I u_sync_detector\/_29_:A2 B
*I u_sync_detector\/_25_:A2 B
*I u_sync_detector\/_23_:A2 B
*I u_sync_detector\/_22_:Z B
*CAP
1 u_sync_detector\/_10_ 3.660962
2 u_sync_detector\/_10_ u_sync_detector\/_12_ 0.031696
3 u_sync_detector\/_10_ u_sync_detector\/match[0] 0.004628
4 u_sync_detector\/_10_ u_sync_detector\/match[1] 0.011404
5 u_sync_detector\/_10_ u_sync_detector\/match[2] 0.009255
*RES
1 u_sync_detector\/_10_ u_sync_detector\/_10_:2 22.584400
2 u_sync_detector\/_10_ u_sync_detector\/_10_:3 32.459500
3 u_sync_detector\/_10_ u_sync_detector\/_10_:4 27.299200
4 u_sync_detector\/_10_ u_sync_detector\/_10_:5 24.714900
5 u_sync_detector\/_10_ u_sync_detector\/_10_:6 13.761300
6 u_sync_detector\/_10_ u_sync_detector\/_10_:7 35.366500
7 u_sync_detector\/_10_ u_sync_detector\/_10_:8 38.210700
8 u_sync_detector\/_10_ u_sync_detector\/_10_:9 37.708900
9 u_sync_detector\/_10_ u_sync_detector\/_10_:10 23.690900
10 u_sync_detector\/_10_ u_sync_detector\/_10_:11 24.464700
11 u_sync_detector\/_10_ u_sync_detector\/_29_:A2 0.000000
12 u_sync_detector\/_10_ u_sync_detector\/_25_:A2 0.000000
13 u_sync_detector\/_10_ u_sync_detector\/_23_:A2 0.000000
14 u_sync_detector\/_10_ u_sync_detector\/_22_:Z 0.000000
*END

*D_NET u_sync_detector\/_11_ 5.676725
*CONN
*P u_sync_detector\/_11_ B
*I u_sync_detector\/_26_:A2 B
*I u_sync_detector\/_24_:A3 B
*I u_sync_detector\/_23_:Z B
*CAP
1 u_sync_detector\/_11_ 5.667800
2 u_sync_detector\/_11_ u_sync_detector\/_12_ 0.004297
3 u_sync_detector\/_11_ u_sync_detector\/match[2] 0.004628
*RES
1 u_sync_detector\/_11_ u_sync_detector\/_11_:2 40.994300
2 u_sync_detector\/_11_ u_sync_detector\/_11_:3 36.138200
3 u_sync_detector\/_11_ u_sync_detector\/_11_:4 43.079700
4 u_sync_detector\/_11_ u_sync_detector\/_11_:5 23.277300
5 u_sync_detector\/_11_ u_sync_detector\/_11_:6 45.878000
6 u_sync_detector\/_11_ u_sync_detector\/_11_:7 46.003300
7 u_sync_detector\/_11_ u_sync_detector\/_11_:8 51.736400
8 u_sync_detector\/_11_ u_sync_detector\/_11_:9 30.747000
9 u_sync_detector\/_11_ u_sync_detector\/_11_:10 13.872000
10 u_sync_detector\/_11_ u_sync_detector\/_11_:11 15.240100
11 u_sync_detector\/_11_ u_sync_detector\/_11_:12 24.629700
12 u_sync_detector\/_11_ u_sync_detector\/_11_:13 23.652500
13 u_sync_detector\/_11_ u_sync_detector\/_26_:A2 0.000000
14 u_sync_detector\/_11_ u_sync_detector\/_24_:A3 0.000000
15 u_sync_detector\/_11_ u_sync_detector\/_23_:Z 0.000000
*END

*D_NET u_sync_detector\/_12_ 3.393436
*CONN
*P u_sync_detector\/_12_ B
*I u_sync_detector\/_26_:A3 B
*I u_sync_detector\/_25_:ZN B
*CAP
1 u_sync_detector\/_12_ 3.388808
2 u_sync_detector\/_12_ u_sync_detector\/match[0] 0.004628
*RES
1 u_sync_detector\/_12_ u_sync_detector\/_12_:2 25.005700
2 u_sync_detector\/_12_ u_sync_detector\/_12_:3 20.789900
3 u_sync_detector\/_12_ u_sync_detector\/_12_:4 20.285500
4 u_sync_detector\/_12_ u_sync_detector\/_12_:5 30.412500
5 u_sync_detector\/_12_ u_sync_detector\/_12_:6 30.063600
6 u_sync_detector\/_12_ u_sync_detector\/_12_:7 34.405900
7 u_sync_detector\/_12_ u_sync_detector\/_12_:8 34.558900
8 u_sync_detector\/_12_ u_sync_detector\/_26_:A3 0.000000
9 u_sync_detector\/_12_ u_sync_detector\/_25_:ZN 0.000000
*END

*D_NET u_sync_detector\/_13_ 2.155687
*CONN
*P u_sync_detector\/_13_ B
*I u_sync_detector\/_31_:A2 B
*I u_sync_detector\/_28_:A2 B
*I u_sync_detector\/_27_:Z B
*CAP
1 u_sync_detector\/_13_ 2.099424
2 u_sync_detector\/_13_ u_sync_detector\/match[0] 0.027766
3 u_sync_detector\/_13_ u_sync_detector\/match[1] 0.028497
*RES
1 u_sync_detector\/_13_ u_sync_detector\/_13_:2 19.864700
2 u_sync_detector\/_13_ u_sync_detector\/_13_:3 49.463500
3 u_sync_detector\/_13_ u_sync_detector\/_13_:4 20.353800
4 u_sync_detector\/_13_ u_sync_detector\/_13_:5 16.110600
5 u_sync_detector\/_13_ u_sync_detector\/_13_:6 37.376200
6 u_sync_detector\/_13_ u_sync_detector\/_13_:7 35.572500
7 u_sync_detector\/_13_ u_sync_detector\/_31_:A2 0.000000
8 u_sync_detector\/_13_ u_sync_detector\/_28_:A2 0.000000
9 u_sync_detector\/_13_ u_sync_detector\/_27_:Z 0.000000
*END

*D_NET u_sync_detector\/_14_ 2.074452
*CONN
*P u_sync_detector\/_14_ B
*I u_sync_detector\/_29_:A3 B
*I u_sync_detector\/_28_:ZN B
*CAP
1 u_sync_detector\/_14_ 2.062635
2 u_sync_detector\/_14_ u_sync_detector\/match[1] 0.007189
3 u_sync_detector\/_14_ u_sync_detector\/match[2] 0.004628
*RES
1 u_sync_detector\/_14_ u_sync_detector\/_14_:2 9.194700
2 u_sync_detector\/_14_ u_sync_detector\/_14_:3 27.004700
3 u_sync_detector\/_14_ u_sync_detector\/_14_:4 16.910900
4 u_sync_detector\/_14_ u_sync_detector\/_14_:5 17.959000
5 u_sync_detector\/_14_ u_sync_detector\/_14_:6 17.382900
6 u_sync_detector\/_14_ u_sync_detector\/_29_:A3 0.000000
7 u_sync_detector\/_14_ u_sync_detector\/_28_:ZN 0.000000
*END

*D_NET u_sync_detector\/_15_ 1.500193
*CONN
*P u_sync_detector\/_15_ B
*I u_sync_detector\/_31_:B B
*I u_sync_detector\/_30_:ZN B
*CAP
1 u_sync_detector\/_15_ 1.495092
2 u_sync_detector\/_15_ u_sync_detector\/match[0] 0.005101
*RES
1 u_sync_detector\/_15_ u_sync_detector\/_15_:2 10.409400
2 u_sync_detector\/_15_ u_sync_detector\/_15_:3 30.433200
3 u_sync_detector\/_15_ u_sync_detector\/_15_:4 26.304000
4 u_sync_detector\/_15_ u_sync_detector\/_15_:5 6.073500
5 u_sync_detector\/_15_ u_sync_detector\/_15_:6 11.302200
6 u_sync_detector\/_15_ u_sync_detector\/_31_:B 0.000000
7 u_sync_detector\/_15_ u_sync_detector\/_30_:ZN 0.000000
*END

*D_NET u_sync_detector\/match\[0\] 8.419167
*CONN
*P u_sync_detector\/match\[0\] B
*I u_sync_detector\/_34_:Q B
*I u_sync_detector\/_30_:A1 B
*I u_sync_detector\/_27_:A1 B
*I u_sync_detector\/_22_:A1 B
*I u_sync_detector\/_17_:A1 B
*CAP
1 u_sync_detector\/match[0] 8.396883
2 u_sync_detector\/match[0] u_sync_detector\/match[1] 0.014262
3 u_sync_detector\/match[0] u_sync_detector\/match[2] 0.008022
*RES
1 u_sync_detector\/match[0] u_sync_detector\/match\[0\]:2 14.614000
2 u_sync_detector\/match[0] u_sync_detector\/match\[0\]:3 24.695100
3 u_sync_detector\/match[0] u_sync_detector\/match\[0\]:4 19.603000
4 u_sync_detector\/match[0] u_sync_detector\/match\[0\]:5 9.885400
5 u_sync_detector\/match[0] u_sync_detector\/match\[0\]:6 56.684600
6 u_sync_detector\/match[0] u_sync_detector\/match\[0\]:7 93.722900
7 u_sync_detector\/match[0] u_sync_detector\/match\[0\]:8 20.874900
8 u_sync_detector\/match[0] u_sync_detector\/match\[0\]:9 42.310100
9 u_sync_detector\/match[0] u_sync_detector\/match\[0\]:10 30.906900
10 u_sync_detector\/match[0] u_sync_detector\/match\[0\]:11 26.967000
11 u_sync_detector\/match[0] u_sync_detector\/match\[0\]:12 23.538500
12 u_sync_detector\/match[0] u_sync_detector\/match\[0\]:13 46.761700
13 u_sync_detector\/match[0] u_sync_detector\/match\[0\]:14 66.468500
14 u_sync_detector\/match[0] u_sync_detector\/match\[0\]:15 30.006700
15 u_sync_detector\/match[0] u_sync_detector\/match\[0\]:16 53.594700
16 u_sync_detector\/match[0] u_sync_detector\/match\[0\]:17 80.550900
17 u_sync_detector\/match[0] u_sync_detector\/_34_:Q 0.000000
18 u_sync_detector\/match[0] u_sync_detector\/_30_:A1 0.000000
19 u_sync_detector\/match[0] u_sync_detector\/_27_:A1 0.000000
20 u_sync_detector\/match[0] u_sync_detector\/_22_:A1 0.000000
21 u_sync_detector\/match[0] u_sync_detector\/_17_:A1 0.000000
*END

*D_NET u_sync_detector\/match\[1\] 6.394166
*CONN
*P u_sync_detector\/match\[1\] B
*I u_sync_detector\/_35_:Q B
*I u_sync_detector\/_28_:A1 B
*I u_sync_detector\/_22_:A3 B
*I u_sync_detector\/_17_:A2 B
*CAP
1 u_sync_detector\/match[1] 6.389538
2 u_sync_detector\/match[1] u_sync_detector\/match[2] 0.004628
*RES
1 u_sync_detector\/match[1] u_sync_detector\/match\[1\]:2 110.386000
2 u_sync_detector\/match[1] u_sync_detector\/match\[1\]:3 17.156900
3 u_sync_detector\/match[1] u_sync_detector\/match\[1\]:4 36.014400
4 u_sync_detector\/match[1] u_sync_detector\/match\[1\]:5 15.891400
5 u_sync_detector\/match[1] u_sync_detector\/match\[1\]:6 19.951400
6 u_sync_detector\/match[1] u_sync_detector\/match\[1\]:7 14.714800
7 u_sync_detector\/match[1] u_sync_detector\/match\[1\]:8 38.252700
8 u_sync_detector\/match[1] u_sync_detector\/match\[1\]:9 22.284700
9 u_sync_detector\/match[1] u_sync_detector\/match\[1\]:10 8.098400
10 u_sync_detector\/match[1] u_sync_detector\/match\[1\]:11 89.789600
11 u_sync_detector\/match[1] u_sync_detector\/match\[1\]:12 32.288600
12 u_sync_detector\/match[1] u_sync_detector\/match\[1\]:13 59.357700
13 u_sync_detector\/match[1] u_sync_detector\/match\[1\]:14 50.936700
14 u_sync_detector\/match[1] u_sync_detector\/match\[1\]:15 44.369600
15 u_sync_detector\/match[1] u_sync_detector\/_35_:Q 0.000000
16 u_sync_detector\/match[1] u_sync_detector\/_28_:A1 0.000000
17 u_sync_detector\/match[1] u_sync_detector\/_22_:A3 0.000000
18 u_sync_detector\/match[1] u_sync_detector\/_17_:A2 0.000000
*END

*D_NET u_sync_detector\/match\[2\] 5.612901
*CONN
*P u_sync_detector\/match\[2\] B
*I u_sync_detector\/_36_:Q B
*I u_sync_detector\/_25_:A1 B
*I u_sync_detector\/_23_:A1 B
*I u_sync_detector\/_17_:A3 B
*CAP
1 u_sync_detector\/match[2] 5.612901
*RES
1 u_sync_detector\/match[2] u_sync_detector\/match\[2\]:2 34.945300
2 u_sync_detector\/match[2] u_sync_detector\/match\[2\]:3 27.740700
3 u_sync_detector\/match[2] u_sync_detector\/match\[2\]:4 44.704500
4 u_sync_detector\/match[2] u_sync_detector\/match\[2\]:5 48.518600
5 u_sync_detector\/match[2] u_sync_detector\/match\[2\]:6 54.845600
6 u_sync_detector\/match[2] u_sync_detector\/match\[2\]:7 41.991400
7 u_sync_detector\/match[2] u_sync_detector\/match\[2\]:8 21.299700
8 u_sync_detector\/match[2] u_sync_detector\/match\[2\]:9 37.591900
9 u_sync_detector\/match[2] u_sync_detector\/match\[2\]:10 14.424900
10 u_sync_detector\/match[2] u_sync_detector\/match\[2\]:11 33.759200
11 u_sync_detector\/match[2] u_sync_detector\/match\[2\]:12 89.573100
12 u_sync_detector\/match[2] u_sync_detector\/match\[2\]:13 9.822100
13 u_sync_detector\/match[2] u_sync_detector\/match\[2\]:14 64.964200
14 u_sync_detector\/match[2] u_sync_detector\/match\[2\]:15 15.709100
15 u_sync_detector\/match[2] u_sync_detector\/_36_:Q 0.000000
16 u_sync_detector\/match[2] u_sync_detector\/_25_:A1 0.000000
17 u_sync_detector\/match[2] u_sync_detector\/_23_:A1 0.000000
18 u_sync_detector\/match[2] u_sync_detector\/_17_:A3 0.000000
*END

*D_NET u_sync_detector\/match\[3\] 5.294525
*CONN
*P u_sync_detector\/match\[3\] B
*I u_sync_detector\/_37_:Q B
*I u_sync_detector\/_20_:I B
*I u_sync_detector\/_19_:A1 B
*CAP
1 u_sync_detector\/match[3] 5.294525
*RES
1 u_sync_detector\/match[3] u_sync_detector\/match\[3\]:2 37.277200
2 u_sync_detector\/match[3] u_sync_detector\/match\[3\]:3 40.635300
3 u_sync_detector\/match[3] u_sync_detector\/match\[3\]:4 36.881000
4 u_sync_detector\/match[3] u_sync_detector\/match\[3\]:5 34.687600
5 u_sync_detector\/match[3] u_sync_detector\/match\[3\]:6 22.155000
6 u_sync_detector\/match[3] u_sync_detector\/match\[3\]:7 21.481700
7 u_sync_detector\/match[3] u_sync_detector\/match\[3\]:8 17.423200
8 u_sync_detector\/match[3] u_sync_detector\/match\[3\]:9 27.414800
9 u_sync_detector\/match[3] u_sync_detector\/match\[3\]:10 56.766600
10 u_sync_detector\/match[3] u_sync_detector\/match\[3\]:11 47.337100
11 u_sync_detector\/match[3] u_sync_detector\/match\[3\]:12 71.451300
12 u_sync_detector\/match[3] u_sync_detector\/match\[3\]:13 33.060900
13 u_sync_detector\/match[3] u_sync_detector\/_37_:Q 0.000000
14 u_sync_detector\/match[3] u_sync_detector\/_20_:I 0.000000
15 u_sync_detector\/match[3] u_sync_detector\/_19_:A1 0.000000
*END

*D_NET u_sync_detector\/sync_valid 0.282617
*CONN
*P u_sync_detector\/sync_valid B
*I u_sync_detector\/_33_:Q B
*CAP
1 u_sync_detector\/sync_valid 0.282617
*RES
1 u_sync_detector\/sync_valid u_sync_detector\/sync_valid:2 0.437600
2 u_sync_detector\/sync_valid u_sync_detector\/sync_valid:3 0.437600
3 u_sync_detector\/sync_valid u_sync_detector\/_33_:Q 0.000000
*END

